
     Program PWSCF v.7.5 starts on 18Sep2026 at 18: 1: 7 

     This program is part of the open-source Quantum ESPRESSO suite
     for quantum simulation of materials; please cite
         "P. Giannozzi et al., J. Phys.:Condens. Matter 21 395502 (2009);
         "P. Giannozzi et al., J. Phys.:Condens. Matter 29 465901 (2017);
         "P. Giannozzi et al., J. Chem. Phys. 152 154105 (2020);
          URL http://www.quantum-espresso.org", 
     in publications or presentations arising from this work. More details at
     http://www.quantum-espresso.org/quote

     Parallel version (MPI), running on     1 processors

     MPI processes distributed on     1 nodes
     7022 MiB available memory on the printing compute node when the environment starts

     Waiting for input...
     Reading input from standard input

     Current dimensions of program PWSCF are:
     Max number of different atomic species (ntypx) = 10
     Max number of k-points (npk) =  40000
     Max angular momentum in pseudopotentials (lmaxx) =  4
     file C.pbesol-n-kjpaw_psl.1.0.0.UPF: wavefunction(s)  2S 2P renormalized

     Atomic positions and unit cell read from directory:
     ./tmp/graphene.save/

     Message from routine setup:
     using ibrav=0 with symmetry is DISCOURAGED, use correct ibrav instead

     Subspace diagonalization in iterative solution of the eigenvalue problem:
     a serial algorithm will be used


     G-vector sticks info
     --------------------
     sticks:   dense  smooth     PW     G-vecs:    dense   smooth      PW
     Sum         535     265     85                64893    22953    4225

     Using Slab Decomposition



     bravais-lattice index     =            0
     lattice parameter (alat)  =       4.6415  a.u.
     unit-cell volume          =     564.1104 (a.u.)^3
     number of atoms/cell      =            2
     number of atomic types    =            1
     number of electrons       =         8.00
     number of Kohn-Sham states=           16
     kinetic-energy cutoff     =      45.0000  Ry
     charge density cutoff     =     360.0000  Ry
     Exchange-correlation= SLA  PW   PSX  PSC
                           (   1   4  10   8   0   0   0)

     celldm(1)=   4.641489  celldm(2)=   0.000000  celldm(3)=   0.000000
     celldm(4)=   0.000000  celldm(5)=   0.000000  celldm(6)=   0.000000

     crystal axes: (cart. coord. in units of alat)
               a(1) = (   1.000000   0.000000   0.000000 )  
               a(2) = (  -0.500000   0.866025   0.000000 )  
               a(3) = (   0.000000   0.000000   6.514207 )  

     reciprocal axes: (cart. coord. in units 2 pi/alat)
               b(1) = (  1.000000  0.577350 -0.000000 )  
               b(2) = (  0.000000  1.154701  0.000000 )  
               b(3) = (  0.000000 -0.000000  0.153511 )  


     PseudoPot. # 1 for C  read from file:
     ./pseudo/C.pbesol-n-kjpaw_psl.1.0.0.UPF
     MD5 check sum: 5f3a56537b2bcef3348431d8311bb923
     Pseudo is Projector augmented-wave + core cor, Zval =  4.0
     Generated using "atomic" code by A. Dal Corso  v.6.0 svn rev. 13079
     Shape of augmentation charge: PSQ
     Using radial grid of 1073 points,  4 beta functions with: 
                l(1) =   0
                l(2) =   0
                l(3) =   1
                l(4) =   1
     Q(r) pseudized with 0 coefficients 


     atomic species   valence    mass     pseudopotential
     C                 4.00    12.01070     C ( 1.00)

     24 Sym. Ops., with inversion, found


                                    s                        frac. trans.

      isym =  1     identity                                     

 cryst.   s( 1) = (     1          0          0      )
                  (     0          1          0      )
                  (     0          0          1      )

 cart.    s( 1) = (  1.0000000  0.0000000  0.0000000 )
                  (  0.0000000  1.0000000  0.0000000 )
                  (  0.0000000  0.0000000  1.0000000 )


      isym =  2     180 deg rotation - cart. axis [0,0,1]        

 cryst.   s( 2) = (    -1          0          0      )
                  (     0         -1          0      )
                  (     0          0          1      )

 cart.    s( 2) = ( -1.0000000  0.0000000  0.0000000 )
                  (  0.0000000 -1.0000000  0.0000000 )
                  (  0.0000000  0.0000000  1.0000000 )


      isym =  3     180 deg rotation - cart. axis [0,1,0]        

 cryst.   s( 3) = (    -1          0          0      )
                  (     1          1          0      )
                  (     0          0         -1      )

 cart.    s( 3) = ( -1.0000000  0.0000000  0.0000000 )
                  (  0.0000000  1.0000000  0.0000000 )
                  (  0.0000000  0.0000000 -1.0000000 )


      isym =  4     180 deg rotation - cart. axis [1,0,0]        

 cryst.   s( 4) = (     1          0          0      )
                  (    -1         -1          0      )
                  (     0          0         -1      )

 cart.    s( 4) = (  1.0000000  0.0000000  0.0000000 )
                  (  0.0000000 -1.0000000  0.0000000 )
                  (  0.0000000  0.0000000 -1.0000000 )


      isym =  5      60 deg rotation - cryst. axis [0,0,1]       

 cryst.   s( 5) = (     1          1          0      )
                  (    -1          0          0      )
                  (     0          0          1      )

 cart.    s( 5) = (  0.5000000 -0.8660254  0.0000000 )
                  (  0.8660254  0.5000000  0.0000000 )
                  (  0.0000000  0.0000000  1.0000000 )


      isym =  6      60 deg rotation - cryst. axis [0,0,-1]      

 cryst.   s( 6) = (     0         -1          0      )
                  (     1          1          0      )
                  (     0          0          1      )

 cart.    s( 6) = (  0.5000000  0.8660254  0.0000000 )
                  ( -0.8660254  0.5000000  0.0000000 )
                  (  0.0000000  0.0000000  1.0000000 )


      isym =  7     120 deg rotation - cryst. axis [0,0,1]       

 cryst.   s( 7) = (     0          1          0      )
                  (    -1         -1          0      )
                  (     0          0          1      )

 cart.    s( 7) = ( -0.5000000 -0.8660254  0.0000000 )
                  (  0.8660254 -0.5000000  0.0000000 )
                  (  0.0000000  0.0000000  1.0000000 )


      isym =  8     120 deg rotation - cryst. axis [0,0,-1]      

 cryst.   s( 8) = (    -1         -1          0      )
                  (     1          0          0      )
                  (     0          0          1      )

 cart.    s( 8) = ( -0.5000000  0.8660254  0.0000000 )
                  ( -0.8660254 -0.5000000  0.0000000 )
                  (  0.0000000  0.0000000  1.0000000 )


      isym =  9     180 deg rotation - cryst. axis [1,-1,0]      

 cryst.   s( 9) = (     0         -1          0      )
                  (    -1          0          0      )
                  (     0          0         -1      )

 cart.    s( 9) = (  0.5000000 -0.8660254  0.0000000 )
                  ( -0.8660254 -0.5000000  0.0000000 )
                  (  0.0000000  0.0000000 -1.0000000 )


      isym = 10     180 deg rotation - cryst. axis [2,1,0]       

 cryst.   s(10) = (     1          1          0      )
                  (     0         -1          0      )
                  (     0          0         -1      )

 cart.    s(10) = (  0.5000000  0.8660254  0.0000000 )
                  (  0.8660254 -0.5000000  0.0000000 )
                  (  0.0000000  0.0000000 -1.0000000 )


      isym = 11     180 deg rotation - cryst. axis [0,1,0]       

 cryst.   s(11) = (    -1         -1          0      )
                  (     0          1          0      )
                  (     0          0         -1      )

 cart.    s(11) = ( -0.5000000 -0.8660254  0.0000000 )
                  ( -0.8660254  0.5000000  0.0000000 )
                  (  0.0000000  0.0000000 -1.0000000 )


      isym = 12     180 deg rotation - cryst. axis [1,1,0]       

 cryst.   s(12) = (     0          1          0      )
                  (     1          0          0      )
                  (     0          0         -1      )

 cart.    s(12) = ( -0.5000000  0.8660254  0.0000000 )
                  (  0.8660254  0.5000000  0.0000000 )
                  (  0.0000000  0.0000000 -1.0000000 )


      isym = 13     inversion                                    

 cryst.   s(13) = (    -1          0          0      )
                  (     0         -1          0      )
                  (     0          0         -1      )

 cart.    s(13) = ( -1.0000000  0.0000000  0.0000000 )
                  (  0.0000000 -1.0000000  0.0000000 )
                  (  0.0000000  0.0000000 -1.0000000 )


      isym = 14     inv. 180 deg rotation - cart. axis [0,0,1]   

 cryst.   s(14) = (     1          0          0      )
                  (     0          1          0      )
                  (     0          0         -1      )

 cart.    s(14) = (  1.0000000  0.0000000  0.0000000 )
                  (  0.0000000  1.0000000  0.0000000 )
                  (  0.0000000  0.0000000 -1.0000000 )


      isym = 15     inv. 180 deg rotation - cart. axis [0,1,0]   

 cryst.   s(15) = (     1          0          0      )
                  (    -1         -1          0      )
                  (     0          0          1      )

 cart.    s(15) = (  1.0000000  0.0000000  0.0000000 )
                  (  0.0000000 -1.0000000  0.0000000 )
                  (  0.0000000  0.0000000  1.0000000 )


      isym = 16     inv. 180 deg rotation - cart. axis [1,0,0]   

 cryst.   s(16) = (    -1          0          0      )
                  (     1          1          0      )
                  (     0          0          1      )

 cart.    s(16) = ( -1.0000000  0.0000000  0.0000000 )
                  (  0.0000000  1.0000000  0.0000000 )
                  (  0.0000000  0.0000000  1.0000000 )


      isym = 17     inv.  60 deg rotation - cryst. axis [0,0,1]  

 cryst.   s(17) = (    -1         -1          0      )
                  (     1          0          0      )
                  (     0          0         -1      )

 cart.    s(17) = ( -0.5000000  0.8660254  0.0000000 )
                  ( -0.8660254 -0.5000000  0.0000000 )
                  (  0.0000000  0.0000000 -1.0000000 )


      isym = 18     inv.  60 deg rotation - cryst. axis [0,0,-1] 

 cryst.   s(18) = (     0          1          0      )
                  (    -1         -1          0      )
                  (     0          0         -1      )

 cart.    s(18) = ( -0.5000000 -0.8660254  0.0000000 )
                  (  0.8660254 -0.5000000  0.0000000 )
                  (  0.0000000  0.0000000 -1.0000000 )


      isym = 19     inv. 120 deg rotation - cryst. axis [0,0,1]  

 cryst.   s(19) = (     0         -1          0      )
                  (     1          1          0      )
                  (     0          0         -1      )

 cart.    s(19) = (  0.5000000  0.8660254  0.0000000 )
                  ( -0.8660254  0.5000000  0.0000000 )
                  (  0.0000000  0.0000000 -1.0000000 )


      isym = 20     inv. 120 deg rotation - cryst. axis [0,0,-1] 

 cryst.   s(20) = (     1          1          0      )
                  (    -1          0          0      )
                  (     0          0         -1      )

 cart.    s(20) = (  0.5000000 -0.8660254  0.0000000 )
                  (  0.8660254  0.5000000  0.0000000 )
                  (  0.0000000  0.0000000 -1.0000000 )


      isym = 21     inv. 180 deg rotation - cryst. axis [1,-1,0] 

 cryst.   s(21) = (     0          1          0      )
                  (     1          0          0      )
                  (     0          0          1      )

 cart.    s(21) = ( -0.5000000  0.8660254  0.0000000 )
                  (  0.8660254  0.5000000  0.0000000 )
                  (  0.0000000  0.0000000  1.0000000 )


      isym = 22     inv. 180 deg rotation - cryst. axis [2,1,0]  

 cryst.   s(22) = (    -1         -1          0      )
                  (     0          1          0      )
                  (     0          0          1      )

 cart.    s(22) = ( -0.5000000 -0.8660254  0.0000000 )
                  ( -0.8660254  0.5000000  0.0000000 )
                  (  0.0000000  0.0000000  1.0000000 )


      isym = 23     inv. 180 deg rotation - cryst. axis [0,1,0]  

 cryst.   s(23) = (     1          1          0      )
                  (     0         -1          0      )
                  (     0          0          1      )

 cart.    s(23) = (  0.5000000  0.8660254  0.0000000 )
                  (  0.8660254 -0.5000000  0.0000000 )
                  (  0.0000000  0.0000000  1.0000000 )


      isym = 24     inv. 180 deg rotation - cryst. axis [1,1,0]  

 cryst.   s(24) = (     0         -1          0      )
                  (    -1          0          0      )
                  (     0          0          1      )

 cart.    s(24) = (  0.5000000 -0.8660254  0.0000000 )
                  ( -0.8660254 -0.5000000  0.0000000 )
                  (  0.0000000  0.0000000  1.0000000 )


   Cartesian axes

     site n.     atom                  positions (alat units)
         1        C      tau(   1) = (  -0.0000000   0.5773503   0.0000000  )
         2        C      tau(   2) = (   0.5000000   0.2886751   0.0000000  )

   Crystallographic axes

     site n.     atom                  positions (cryst. coord.)
         1        C      tau(   1) = (  0.3333333  0.6666667  0.0000000  )
         2        C      tau(   2) = (  0.6666667  0.3333333  0.0000000  )

     number of k points=   151
                       cart. coord. in units 2pi/alat
        k(    1) = (   0.0000000   0.0000000   0.0000000), wk =   0.0132450
        k(    2) = (   0.0100000   0.0057735   0.0000000), wk =   0.0132450
        k(    3) = (   0.0200000   0.0115470   0.0000000), wk =   0.0132450
        k(    4) = (   0.0300000   0.0173205   0.0000000), wk =   0.0132450
        k(    5) = (   0.0400000   0.0230940   0.0000000), wk =   0.0132450
        k(    6) = (   0.0500000   0.0288675   0.0000000), wk =   0.0132450
        k(    7) = (   0.0600000   0.0346410   0.0000000), wk =   0.0132450
        k(    8) = (   0.0700000   0.0404145   0.0000000), wk =   0.0132450
        k(    9) = (   0.0800000   0.0461880   0.0000000), wk =   0.0132450
        k(   10) = (   0.0900000   0.0519615   0.0000000), wk =   0.0132450
        k(   11) = (   0.1000000   0.0577350   0.0000000), wk =   0.0132450
        k(   12) = (   0.1100000   0.0635085   0.0000000), wk =   0.0132450
        k(   13) = (   0.1200000   0.0692820   0.0000000), wk =   0.0132450
        k(   14) = (   0.1300000   0.0750555   0.0000000), wk =   0.0132450
        k(   15) = (   0.1400000   0.0808290   0.0000000), wk =   0.0132450
        k(   16) = (   0.1500000   0.0866025   0.0000000), wk =   0.0132450
        k(   17) = (   0.1600000   0.0923760   0.0000000), wk =   0.0132450
        k(   18) = (   0.1700000   0.0981495   0.0000000), wk =   0.0132450
        k(   19) = (   0.1800000   0.1039230   0.0000000), wk =   0.0132450
        k(   20) = (   0.1900000   0.1096966   0.0000000), wk =   0.0132450
        k(   21) = (   0.2000000   0.1154701   0.0000000), wk =   0.0132450
        k(   22) = (   0.2100000   0.1212436   0.0000000), wk =   0.0132450
        k(   23) = (   0.2200000   0.1270171   0.0000000), wk =   0.0132450
        k(   24) = (   0.2300000   0.1327906   0.0000000), wk =   0.0132450
        k(   25) = (   0.2400000   0.1385641   0.0000000), wk =   0.0132450
        k(   26) = (   0.2500000   0.1443376   0.0000000), wk =   0.0132450
        k(   27) = (   0.2600000   0.1501111   0.0000000), wk =   0.0132450
        k(   28) = (   0.2700000   0.1558846   0.0000000), wk =   0.0132450
        k(   29) = (   0.2800000   0.1616581   0.0000000), wk =   0.0132450
        k(   30) = (   0.2900000   0.1674316   0.0000000), wk =   0.0132450
        k(   31) = (   0.3000000   0.1732051   0.0000000), wk =   0.0132450
        k(   32) = (   0.3100000   0.1789786   0.0000000), wk =   0.0132450
        k(   33) = (   0.3200000   0.1847521   0.0000000), wk =   0.0132450
        k(   34) = (   0.3300000   0.1905256   0.0000000), wk =   0.0132450
        k(   35) = (   0.3400000   0.1962991   0.0000000), wk =   0.0132450
        k(   36) = (   0.3500000   0.2020726   0.0000000), wk =   0.0132450
        k(   37) = (   0.3600000   0.2078461   0.0000000), wk =   0.0132450
        k(   38) = (   0.3700000   0.2136196   0.0000000), wk =   0.0132450
        k(   39) = (   0.3800000   0.2193931   0.0000000), wk =   0.0132450
        k(   40) = (   0.3900000   0.2251666   0.0000000), wk =   0.0132450
        k(   41) = (   0.4000000   0.2309401   0.0000000), wk =   0.0132450
        k(   42) = (   0.4100000   0.2367136   0.0000000), wk =   0.0132450
        k(   43) = (   0.4200000   0.2424871   0.0000000), wk =   0.0132450
        k(   44) = (   0.4300000   0.2482606   0.0000000), wk =   0.0132450
        k(   45) = (   0.4400000   0.2540341   0.0000000), wk =   0.0132450
        k(   46) = (   0.4500000   0.2598076   0.0000000), wk =   0.0132450
        k(   47) = (   0.4600000   0.2655811   0.0000000), wk =   0.0132450
        k(   48) = (   0.4700000   0.2713546   0.0000000), wk =   0.0132450
        k(   49) = (   0.4800000   0.2771281   0.0000000), wk =   0.0132450
        k(   50) = (   0.4900000   0.2829016   0.0000000), wk =   0.0132450
        k(   51) = (   0.5000000   0.2886751   0.0000000), wk =   0.0132450
        k(   52) = (   0.4966667   0.2944486   0.0000000), wk =   0.0132450
        k(   53) = (   0.4933333   0.3002221   0.0000000), wk =   0.0132450
        k(   54) = (   0.4900000   0.3059956   0.0000000), wk =   0.0132450
        k(   55) = (   0.4866667   0.3117691   0.0000000), wk =   0.0132450
        k(   56) = (   0.4833333   0.3175426   0.0000000), wk =   0.0132450
        k(   57) = (   0.4800000   0.3233162   0.0000000), wk =   0.0132450
        k(   58) = (   0.4766667   0.3290897   0.0000000), wk =   0.0132450
        k(   59) = (   0.4733333   0.3348632   0.0000000), wk =   0.0132450
        k(   60) = (   0.4700000   0.3406367   0.0000000), wk =   0.0132450
        k(   61) = (   0.4666667   0.3464102   0.0000000), wk =   0.0132450
        k(   62) = (   0.4633333   0.3521837   0.0000000), wk =   0.0132450
        k(   63) = (   0.4600000   0.3579572   0.0000000), wk =   0.0132450
        k(   64) = (   0.4566667   0.3637307   0.0000000), wk =   0.0132450
        k(   65) = (   0.4533333   0.3695042   0.0000000), wk =   0.0132450
        k(   66) = (   0.4500000   0.3752777   0.0000000), wk =   0.0132450
        k(   67) = (   0.4466667   0.3810512   0.0000000), wk =   0.0132450
        k(   68) = (   0.4433333   0.3868247   0.0000000), wk =   0.0132450
        k(   69) = (   0.4400000   0.3925982   0.0000000), wk =   0.0132450
        k(   70) = (   0.4366667   0.3983717   0.0000000), wk =   0.0132450
        k(   71) = (   0.4333333   0.4041452   0.0000000), wk =   0.0132450
        k(   72) = (   0.4300000   0.4099187   0.0000000), wk =   0.0132450
        k(   73) = (   0.4266667   0.4156922   0.0000000), wk =   0.0132450
        k(   74) = (   0.4233333   0.4214657   0.0000000), wk =   0.0132450
        k(   75) = (   0.4200000   0.4272392   0.0000000), wk =   0.0132450
        k(   76) = (   0.4166667   0.4330127   0.0000000), wk =   0.0132450
        k(   77) = (   0.4133333   0.4387862   0.0000000), wk =   0.0132450
        k(   78) = (   0.4100000   0.4445597   0.0000000), wk =   0.0132450
        k(   79) = (   0.4066667   0.4503332   0.0000000), wk =   0.0132450
        k(   80) = (   0.4033333   0.4561067   0.0000000), wk =   0.0132450
        k(   81) = (   0.4000000   0.4618802   0.0000000), wk =   0.0132450
        k(   82) = (   0.3966667   0.4676537   0.0000000), wk =   0.0132450
        k(   83) = (   0.3933333   0.4734272   0.0000000), wk =   0.0132450
        k(   84) = (   0.3900000   0.4792007   0.0000000), wk =   0.0132450
        k(   85) = (   0.3866667   0.4849742   0.0000000), wk =   0.0132450
        k(   86) = (   0.3833333   0.4907477   0.0000000), wk =   0.0132450
        k(   87) = (   0.3800000   0.4965212   0.0000000), wk =   0.0132450
        k(   88) = (   0.3766667   0.5022947   0.0000000), wk =   0.0132450
        k(   89) = (   0.3733333   0.5080682   0.0000000), wk =   0.0132450
        k(   90) = (   0.3700000   0.5138417   0.0000000), wk =   0.0132450
        k(   91) = (   0.3666667   0.5196152   0.0000000), wk =   0.0132450
        k(   92) = (   0.3633333   0.5253887   0.0000000), wk =   0.0132450
        k(   93) = (   0.3600000   0.5311622   0.0000000), wk =   0.0132450
        k(   94) = (   0.3566667   0.5369357   0.0000000), wk =   0.0132450
        k(   95) = (   0.3533333   0.5427092   0.0000000), wk =   0.0132450
        k(   96) = (   0.3500000   0.5484828   0.0000000), wk =   0.0132450
        k(   97) = (   0.3466667   0.5542563   0.0000000), wk =   0.0132450
        k(   98) = (   0.3433333   0.5600298   0.0000000), wk =   0.0132450
        k(   99) = (   0.3400000   0.5658033   0.0000000), wk =   0.0132450
        k(  100) = (   0.3366667   0.5715768   0.0000000), wk =   0.0132450
        k(  101) = (   0.3333333   0.5773503   0.0000000), wk =   0.0132450
        k(  102) = (   0.3266667   0.5658033   0.0000000), wk =   0.0132450
        k(  103) = (   0.3200000   0.5542563   0.0000000), wk =   0.0132450
        k(  104) = (   0.3133333   0.5427092   0.0000000), wk =   0.0132450
        k(  105) = (   0.3066667   0.5311622   0.0000000), wk =   0.0132450
        k(  106) = (   0.3000000   0.5196152   0.0000000), wk =   0.0132450
        k(  107) = (   0.2933333   0.5080682   0.0000000), wk =   0.0132450
        k(  108) = (   0.2866667   0.4965212   0.0000000), wk =   0.0132450
        k(  109) = (   0.2800000   0.4849742   0.0000000), wk =   0.0132450
        k(  110) = (   0.2733333   0.4734272   0.0000000), wk =   0.0132450
        k(  111) = (   0.2666667   0.4618802   0.0000000), wk =   0.0132450
        k(  112) = (   0.2600000   0.4503332   0.0000000), wk =   0.0132450
        k(  113) = (   0.2533333   0.4387862   0.0000000), wk =   0.0132450
        k(  114) = (   0.2466667   0.4272392   0.0000000), wk =   0.0132450
        k(  115) = (   0.2400000   0.4156922   0.0000000), wk =   0.0132450
        k(  116) = (   0.2333333   0.4041452   0.0000000), wk =   0.0132450
        k(  117) = (   0.2266667   0.3925982   0.0000000), wk =   0.0132450
        k(  118) = (   0.2200000   0.3810512   0.0000000), wk =   0.0132450
        k(  119) = (   0.2133333   0.3695042   0.0000000), wk =   0.0132450
        k(  120) = (   0.2066667   0.3579572   0.0000000), wk =   0.0132450
        k(  121) = (   0.2000000   0.3464102   0.0000000), wk =   0.0132450
        k(  122) = (   0.1933333   0.3348632   0.0000000), wk =   0.0132450
        k(  123) = (   0.1866667   0.3233161   0.0000000), wk =   0.0132450
        k(  124) = (   0.1800000   0.3117691   0.0000000), wk =   0.0132450
        k(  125) = (   0.1733333   0.3002221   0.0000000), wk =   0.0132450
        k(  126) = (   0.1666667   0.2886751   0.0000000), wk =   0.0132450
        k(  127) = (   0.1600000   0.2771281   0.0000000), wk =   0.0132450
        k(  128) = (   0.1533333   0.2655811   0.0000000), wk =   0.0132450
        k(  129) = (   0.1466667   0.2540341   0.0000000), wk =   0.0132450
        k(  130) = (   0.1400000   0.2424871   0.0000000), wk =   0.0132450
        k(  131) = (   0.1333333   0.2309401   0.0000000), wk =   0.0132450
        k(  132) = (   0.1266667   0.2193931   0.0000000), wk =   0.0132450
        k(  133) = (   0.1200000   0.2078461   0.0000000), wk =   0.0132450
        k(  134) = (   0.1133333   0.1962991   0.0000000), wk =   0.0132450
        k(  135) = (   0.1066667   0.1847521   0.0000000), wk =   0.0132450
        k(  136) = (   0.1000000   0.1732051   0.0000000), wk =   0.0132450
        k(  137) = (   0.0933333   0.1616581   0.0000000), wk =   0.0132450
        k(  138) = (   0.0866667   0.1501111   0.0000000), wk =   0.0132450
        k(  139) = (   0.0800000   0.1385641   0.0000000), wk =   0.0132450
        k(  140) = (   0.0733333   0.1270171   0.0000000), wk =   0.0132450
        k(  141) = (   0.0666667   0.1154701   0.0000000), wk =   0.0132450
        k(  142) = (   0.0600000   0.1039230   0.0000000), wk =   0.0132450
        k(  143) = (   0.0533333   0.0923760   0.0000000), wk =   0.0132450
        k(  144) = (   0.0466667   0.0808290   0.0000000), wk =   0.0132450
        k(  145) = (   0.0400000   0.0692820   0.0000000), wk =   0.0132450
        k(  146) = (   0.0333333   0.0577350   0.0000000), wk =   0.0132450
        k(  147) = (   0.0266667   0.0461880   0.0000000), wk =   0.0132450
        k(  148) = (   0.0200000   0.0346410   0.0000000), wk =   0.0132450
        k(  149) = (   0.0133333   0.0230940   0.0000000), wk =   0.0132450
        k(  150) = (   0.0066667   0.0115470   0.0000000), wk =   0.0132450
        k(  151) = (   0.0000000   0.0000000   0.0000000), wk =   0.0132450

                       cryst. coord.
        k(    1) = (   0.0000000   0.0000000   0.0000000), wk =   0.0132450
        k(    2) = (   0.0100000   0.0000000   0.0000000), wk =   0.0132450
        k(    3) = (   0.0200000   0.0000000   0.0000000), wk =   0.0132450
        k(    4) = (   0.0300000  -0.0000000   0.0000000), wk =   0.0132450
        k(    5) = (   0.0400000   0.0000000   0.0000000), wk =   0.0132450
        k(    6) = (   0.0500000  -0.0000000   0.0000000), wk =   0.0132450
        k(    7) = (   0.0600000  -0.0000000   0.0000000), wk =   0.0132450
        k(    8) = (   0.0700000   0.0000000   0.0000000), wk =   0.0132450
        k(    9) = (   0.0800000   0.0000000   0.0000000), wk =   0.0132450
        k(   10) = (   0.0900000   0.0000000   0.0000000), wk =   0.0132450
        k(   11) = (   0.1000000  -0.0000000   0.0000000), wk =   0.0132450
        k(   12) = (   0.1100000   0.0000000   0.0000000), wk =   0.0132450
        k(   13) = (   0.1200000  -0.0000000   0.0000000), wk =   0.0132450
        k(   14) = (   0.1300000   0.0000000   0.0000000), wk =   0.0132450
        k(   15) = (   0.1400000   0.0000000   0.0000000), wk =   0.0132450
        k(   16) = (   0.1500000   0.0000000   0.0000000), wk =   0.0132450
        k(   17) = (   0.1600000   0.0000000   0.0000000), wk =   0.0132450
        k(   18) = (   0.1700000   0.0000000   0.0000000), wk =   0.0132450
        k(   19) = (   0.1800000   0.0000000   0.0000000), wk =   0.0132450
        k(   20) = (   0.1900000  -0.0000000   0.0000000), wk =   0.0132450
        k(   21) = (   0.2000000  -0.0000000   0.0000000), wk =   0.0132450
        k(   22) = (   0.2100000  -0.0000000   0.0000000), wk =   0.0132450
        k(   23) = (   0.2200000   0.0000000   0.0000000), wk =   0.0132450
        k(   24) = (   0.2300000  -0.0000000   0.0000000), wk =   0.0132450
        k(   25) = (   0.2400000  -0.0000000   0.0000000), wk =   0.0132450
        k(   26) = (   0.2500000   0.0000000   0.0000000), wk =   0.0132450
        k(   27) = (   0.2600000   0.0000000   0.0000000), wk =   0.0132450
        k(   28) = (   0.2700000   0.0000000   0.0000000), wk =   0.0132450
        k(   29) = (   0.2800000   0.0000000   0.0000000), wk =   0.0132450
        k(   30) = (   0.2900000   0.0000000   0.0000000), wk =   0.0132450
        k(   31) = (   0.3000000   0.0000000   0.0000000), wk =   0.0132450
        k(   32) = (   0.3100000  -0.0000000   0.0000000), wk =   0.0132450
        k(   33) = (   0.3200000   0.0000000   0.0000000), wk =   0.0132450
        k(   34) = (   0.3300000   0.0000000   0.0000000), wk =   0.0132450
        k(   35) = (   0.3400000   0.0000000   0.0000000), wk =   0.0132450
        k(   36) = (   0.3500000   0.0000000   0.0000000), wk =   0.0132450
        k(   37) = (   0.3600000   0.0000000   0.0000000), wk =   0.0132450
        k(   38) = (   0.3700000   0.0000000   0.0000000), wk =   0.0132450
        k(   39) = (   0.3800000  -0.0000000   0.0000000), wk =   0.0132450
        k(   40) = (   0.3900000   0.0000000   0.0000000), wk =   0.0132450
        k(   41) = (   0.4000000  -0.0000000   0.0000000), wk =   0.0132450
        k(   42) = (   0.4100000   0.0000000   0.0000000), wk =   0.0132450
        k(   43) = (   0.4200000  -0.0000000   0.0000000), wk =   0.0132450
        k(   44) = (   0.4300000   0.0000000   0.0000000), wk =   0.0132450
        k(   45) = (   0.4400000   0.0000000   0.0000000), wk =   0.0132450
        k(   46) = (   0.4500000   0.0000000   0.0000000), wk =   0.0132450
        k(   47) = (   0.4600000  -0.0000000   0.0000000), wk =   0.0132450
        k(   48) = (   0.4700000  -0.0000000   0.0000000), wk =   0.0132450
        k(   49) = (   0.4800000  -0.0000000   0.0000000), wk =   0.0132450
        k(   50) = (   0.4900000  -0.0000000   0.0000000), wk =   0.0132450
        k(   51) = (   0.5000000   0.0000000   0.0000000), wk =   0.0132450
        k(   52) = (   0.4966667   0.0066667   0.0000000), wk =   0.0132450
        k(   53) = (   0.4933333   0.0133333   0.0000000), wk =   0.0132450
        k(   54) = (   0.4900000   0.0200000   0.0000000), wk =   0.0132450
        k(   55) = (   0.4866667   0.0266667   0.0000000), wk =   0.0132450
        k(   56) = (   0.4833333   0.0333333   0.0000000), wk =   0.0132450
        k(   57) = (   0.4800000   0.0400000   0.0000000), wk =   0.0132450
        k(   58) = (   0.4766667   0.0466667   0.0000000), wk =   0.0132450
        k(   59) = (   0.4733333   0.0533333   0.0000000), wk =   0.0132450
        k(   60) = (   0.4700000   0.0600000   0.0000000), wk =   0.0132450
        k(   61) = (   0.4666667   0.0666667   0.0000000), wk =   0.0132450
        k(   62) = (   0.4633333   0.0733333   0.0000000), wk =   0.0132450
        k(   63) = (   0.4600000   0.0800000   0.0000000), wk =   0.0132450
        k(   64) = (   0.4566667   0.0866667   0.0000000), wk =   0.0132450
        k(   65) = (   0.4533333   0.0933333   0.0000000), wk =   0.0132450
        k(   66) = (   0.4500000   0.1000000   0.0000000), wk =   0.0132450
        k(   67) = (   0.4466667   0.1066667   0.0000000), wk =   0.0132450
        k(   68) = (   0.4433333   0.1133333   0.0000000), wk =   0.0132450
        k(   69) = (   0.4400000   0.1200000   0.0000000), wk =   0.0132450
        k(   70) = (   0.4366667   0.1266667   0.0000000), wk =   0.0132450
        k(   71) = (   0.4333333   0.1333333   0.0000000), wk =   0.0132450
        k(   72) = (   0.4300000   0.1400000   0.0000000), wk =   0.0132450
        k(   73) = (   0.4266667   0.1466667   0.0000000), wk =   0.0132450
        k(   74) = (   0.4233333   0.1533333   0.0000000), wk =   0.0132450
        k(   75) = (   0.4200000   0.1600000   0.0000000), wk =   0.0132450
        k(   76) = (   0.4166667   0.1666667   0.0000000), wk =   0.0132450
        k(   77) = (   0.4133333   0.1733333   0.0000000), wk =   0.0132450
        k(   78) = (   0.4100000   0.1800000   0.0000000), wk =   0.0132450
        k(   79) = (   0.4066667   0.1866667   0.0000000), wk =   0.0132450
        k(   80) = (   0.4033333   0.1933333   0.0000000), wk =   0.0132450
        k(   81) = (   0.4000000   0.2000000   0.0000000), wk =   0.0132450
        k(   82) = (   0.3966667   0.2066667   0.0000000), wk =   0.0132450
        k(   83) = (   0.3933333   0.2133333   0.0000000), wk =   0.0132450
        k(   84) = (   0.3900000   0.2200000   0.0000000), wk =   0.0132450
        k(   85) = (   0.3866667   0.2266667   0.0000000), wk =   0.0132450
        k(   86) = (   0.3833333   0.2333333   0.0000000), wk =   0.0132450
        k(   87) = (   0.3800000   0.2400000   0.0000000), wk =   0.0132450
        k(   88) = (   0.3766667   0.2466667   0.0000000), wk =   0.0132450
        k(   89) = (   0.3733333   0.2533333   0.0000000), wk =   0.0132450
        k(   90) = (   0.3700000   0.2600000   0.0000000), wk =   0.0132450
        k(   91) = (   0.3666667   0.2666667   0.0000000), wk =   0.0132450
        k(   92) = (   0.3633333   0.2733333   0.0000000), wk =   0.0132450
        k(   93) = (   0.3600000   0.2800000   0.0000000), wk =   0.0132450
        k(   94) = (   0.3566667   0.2866667   0.0000000), wk =   0.0132450
        k(   95) = (   0.3533333   0.2933333   0.0000000), wk =   0.0132450
        k(   96) = (   0.3500000   0.3000000   0.0000000), wk =   0.0132450
        k(   97) = (   0.3466667   0.3066667   0.0000000), wk =   0.0132450
        k(   98) = (   0.3433333   0.3133333   0.0000000), wk =   0.0132450
        k(   99) = (   0.3400000   0.3200000   0.0000000), wk =   0.0132450
        k(  100) = (   0.3366667   0.3266667   0.0000000), wk =   0.0132450
        k(  101) = (   0.3333333   0.3333333   0.0000000), wk =   0.0132450
        k(  102) = (   0.3266667   0.3266667   0.0000000), wk =   0.0132450
        k(  103) = (   0.3200000   0.3200000   0.0000000), wk =   0.0132450
        k(  104) = (   0.3133333   0.3133333   0.0000000), wk =   0.0132450
        k(  105) = (   0.3066667   0.3066667   0.0000000), wk =   0.0132450
        k(  106) = (   0.3000000   0.3000000   0.0000000), wk =   0.0132450
        k(  107) = (   0.2933333   0.2933333   0.0000000), wk =   0.0132450
        k(  108) = (   0.2866667   0.2866667   0.0000000), wk =   0.0132450
        k(  109) = (   0.2800000   0.2800000   0.0000000), wk =   0.0132450
        k(  110) = (   0.2733333   0.2733333   0.0000000), wk =   0.0132450
        k(  111) = (   0.2666667   0.2666667   0.0000000), wk =   0.0132450
        k(  112) = (   0.2600000   0.2600000   0.0000000), wk =   0.0132450
        k(  113) = (   0.2533333   0.2533333   0.0000000), wk =   0.0132450
        k(  114) = (   0.2466667   0.2466667   0.0000000), wk =   0.0132450
        k(  115) = (   0.2400000   0.2400000   0.0000000), wk =   0.0132450
        k(  116) = (   0.2333333   0.2333333   0.0000000), wk =   0.0132450
        k(  117) = (   0.2266667   0.2266667   0.0000000), wk =   0.0132450
        k(  118) = (   0.2200000   0.2200000   0.0000000), wk =   0.0132450
        k(  119) = (   0.2133333   0.2133333   0.0000000), wk =   0.0132450
        k(  120) = (   0.2066667   0.2066667   0.0000000), wk =   0.0132450
        k(  121) = (   0.2000000   0.2000000   0.0000000), wk =   0.0132450
        k(  122) = (   0.1933333   0.1933333   0.0000000), wk =   0.0132450
        k(  123) = (   0.1866667   0.1866667   0.0000000), wk =   0.0132450
        k(  124) = (   0.1800000   0.1800000   0.0000000), wk =   0.0132450
        k(  125) = (   0.1733333   0.1733333   0.0000000), wk =   0.0132450
        k(  126) = (   0.1666667   0.1666667   0.0000000), wk =   0.0132450
        k(  127) = (   0.1600000   0.1600000   0.0000000), wk =   0.0132450
        k(  128) = (   0.1533333   0.1533333   0.0000000), wk =   0.0132450
        k(  129) = (   0.1466667   0.1466667   0.0000000), wk =   0.0132450
        k(  130) = (   0.1400000   0.1400000   0.0000000), wk =   0.0132450
        k(  131) = (   0.1333333   0.1333333   0.0000000), wk =   0.0132450
        k(  132) = (   0.1266667   0.1266667   0.0000000), wk =   0.0132450
        k(  133) = (   0.1200000   0.1200000   0.0000000), wk =   0.0132450
        k(  134) = (   0.1133333   0.1133333   0.0000000), wk =   0.0132450
        k(  135) = (   0.1066667   0.1066667   0.0000000), wk =   0.0132450
        k(  136) = (   0.1000000   0.1000000   0.0000000), wk =   0.0132450
        k(  137) = (   0.0933333   0.0933333   0.0000000), wk =   0.0132450
        k(  138) = (   0.0866667   0.0866667   0.0000000), wk =   0.0132450
        k(  139) = (   0.0800000   0.0800000   0.0000000), wk =   0.0132450
        k(  140) = (   0.0733333   0.0733333   0.0000000), wk =   0.0132450
        k(  141) = (   0.0666667   0.0666667   0.0000000), wk =   0.0132450
        k(  142) = (   0.0600000   0.0600000   0.0000000), wk =   0.0132450
        k(  143) = (   0.0533333   0.0533333   0.0000000), wk =   0.0132450
        k(  144) = (   0.0466667   0.0466667   0.0000000), wk =   0.0132450
        k(  145) = (   0.0400000   0.0400000   0.0000000), wk =   0.0132450
        k(  146) = (   0.0333333   0.0333333   0.0000000), wk =   0.0132450
        k(  147) = (   0.0266667   0.0266667   0.0000000), wk =   0.0132450
        k(  148) = (   0.0200000   0.0200000   0.0000000), wk =   0.0132450
        k(  149) = (   0.0133333   0.0133333   0.0000000), wk =   0.0132450
        k(  150) = (   0.0066667   0.0066667   0.0000000), wk =   0.0132450
        k(  151) = (   0.0000000   0.0000000   0.0000000), wk =   0.0132450

     Dense  grid:    64893 G-vectors     FFT dimensions: (  30,  30, 192)

     Smooth grid:    22953 G-vectors     FFT dimensions: (  20,  20, 135)

     Dynamical RAM for                 wfc:       0.70 MB

     Dynamical RAM for     wfc (w. buffer):       0.70 MB

     Dynamical RAM for           str. fact:       0.99 MB

     Dynamical RAM for           local pot:       0.00 MB

     Dynamical RAM for          nlocal pot:       0.70 MB

     Dynamical RAM for                qrad:       0.44 MB

     Dynamical RAM for          rho,v,vnew:       6.93 MB

     Dynamical RAM for           G-vectors:       3.89 MB

     Dynamical RAM for          h,s,v(r/c):       0.05 MB

     Dynamical RAM for          <psi|beta>:       0.00 MB

     Dynamical RAM for                 psi:       1.40 MB

     Dynamical RAM for                hpsi:       1.40 MB

     Dynamical RAM for                spsi:       1.40 MB

     Dynamical RAM for      wfcinit/wfcrot:       1.41 MB

     Dynamical RAM for           addusdens:      44.56 MB

     Estimated static dynamical RAM per process >      22.22 MB

     Estimated max dynamical RAM per process >      66.77 MB

     Check: negative core charge=   -0.000005

     The potential is recalculated from file :
     ./tmp/graphene.save/charge-density


     negative rho (up, down):  2.289E-04 0.000E+00
     Starting wfcs are    8 randomized atomic wfcs +    8 random wfcs
     Checking if some PAW data can be deallocated... 

     Band Structure Calculation
     Davidson diagonalization with overlap

     Computing kpt #:     1  of   151
     total cpu time spent up to now is        1.1 secs

     Computing kpt #:     2  of   151
     total cpu time spent up to now is        1.4 secs

     Computing kpt #:     3  of   151
     total cpu time spent up to now is        1.7 secs

     Computing kpt #:     4  of   151
     total cpu time spent up to now is        2.0 secs

     Computing kpt #:     5  of   151
     total cpu time spent up to now is        2.3 secs

     Computing kpt #:     6  of   151
     total cpu time spent up to now is        2.5 secs

     Computing kpt #:     7  of   151
     total cpu time spent up to now is        2.8 secs

     Computing kpt #:     8  of   151
     total cpu time spent up to now is        3.0 secs

     Computing kpt #:     9  of   151
     total cpu time spent up to now is        3.3 secs

     Computing kpt #:    10  of   151
     total cpu time spent up to now is        3.6 secs

     Computing kpt #:    11  of   151
     total cpu time spent up to now is        3.9 secs

     Computing kpt #:    12  of   151
     total cpu time spent up to now is        4.1 secs

     Computing kpt #:    13  of   151
     total cpu time spent up to now is        4.4 secs

     Computing kpt #:    14  of   151
     total cpu time spent up to now is        4.7 secs

     Computing kpt #:    15  of   151
     total cpu time spent up to now is        4.9 secs

     Computing kpt #:    16  of   151
     total cpu time spent up to now is        5.2 secs

     Computing kpt #:    17  of   151
     total cpu time spent up to now is        5.5 secs

     Computing kpt #:    18  of   151
     total cpu time spent up to now is        5.8 secs

     Computing kpt #:    19  of   151
     total cpu time spent up to now is        6.1 secs

     Computing kpt #:    20  of   151
     total cpu time spent up to now is        6.4 secs

     Computing kpt #:    21  of   151
     total cpu time spent up to now is        6.7 secs

     Computing kpt #:    22  of   151
     total cpu time spent up to now is        7.0 secs

     Computing kpt #:    23  of   151
     total cpu time spent up to now is        7.3 secs

     Computing kpt #:    24  of   151
     total cpu time spent up to now is        7.6 secs

     Computing kpt #:    25  of   151
     total cpu time spent up to now is        7.9 secs

     Computing kpt #:    26  of   151
     total cpu time spent up to now is        8.2 secs

     Computing kpt #:    27  of   151
     total cpu time spent up to now is        8.4 secs

     Computing kpt #:    28  of   151
     total cpu time spent up to now is        8.7 secs

     Computing kpt #:    29  of   151
     total cpu time spent up to now is        9.0 secs

     Computing kpt #:    30  of   151
     total cpu time spent up to now is        9.3 secs

     Computing kpt #:    31  of   151
     total cpu time spent up to now is        9.6 secs

     Computing kpt #:    32  of   151
     total cpu time spent up to now is       10.0 secs

     Computing kpt #:    33  of   151
     total cpu time spent up to now is       10.3 secs

     Computing kpt #:    34  of   151
     total cpu time spent up to now is       10.6 secs

     Computing kpt #:    35  of   151
     total cpu time spent up to now is       10.9 secs

     Computing kpt #:    36  of   151
     total cpu time spent up to now is       11.3 secs

     Computing kpt #:    37  of   151
     total cpu time spent up to now is       11.7 secs

     Computing kpt #:    38  of   151
     total cpu time spent up to now is       12.2 secs

     Computing kpt #:    39  of   151
     total cpu time spent up to now is       12.7 secs

     Computing kpt #:    40  of   151
     total cpu time spent up to now is       13.2 secs

     Computing kpt #:    41  of   151
     total cpu time spent up to now is       13.9 secs

     Computing kpt #:    42  of   151
     total cpu time spent up to now is       15.3 secs

     Computing kpt #:    43  of   151
     total cpu time spent up to now is       16.0 secs

     Computing kpt #:    44  of   151
     c_bands:  1 eigenvalues not converged
     total cpu time spent up to now is       16.6 secs

     Computing kpt #:    45  of   151
     total cpu time spent up to now is       17.3 secs

     Computing kpt #:    46  of   151
     total cpu time spent up to now is       17.9 secs

     Computing kpt #:    47  of   151
     total cpu time spent up to now is       18.7 secs

     Computing kpt #:    48  of   151
     total cpu time spent up to now is       19.4 secs

     Computing kpt #:    49  of   151
     total cpu time spent up to now is       20.0 secs

     Computing kpt #:    50  of   151
     total cpu time spent up to now is       20.8 secs

     Computing kpt #:    51  of   151
     total cpu time spent up to now is       21.4 secs

     Computing kpt #:    52  of   151
     total cpu time spent up to now is       22.2 secs

     Computing kpt #:    53  of   151
     total cpu time spent up to now is       22.9 secs

     Computing kpt #:    54  of   151
     total cpu time spent up to now is       23.4 secs

     Computing kpt #:    55  of   151
     total cpu time spent up to now is       24.0 secs

     Computing kpt #:    56  of   151
     total cpu time spent up to now is       24.6 secs

     Computing kpt #:    57  of   151
     total cpu time spent up to now is       25.4 secs

     Computing kpt #:    58  of   151
     total cpu time spent up to now is       26.0 secs

     Computing kpt #:    59  of   151
     total cpu time spent up to now is       26.7 secs

     Computing kpt #:    60  of   151
     total cpu time spent up to now is       27.3 secs

     Computing kpt #:    61  of   151
     total cpu time spent up to now is       27.9 secs

     Computing kpt #:    62  of   151
     total cpu time spent up to now is       28.7 secs

     Computing kpt #:    63  of   151
     total cpu time spent up to now is       29.4 secs

     Computing kpt #:    64  of   151
     total cpu time spent up to now is       30.1 secs

     Computing kpt #:    65  of   151
     total cpu time spent up to now is       30.8 secs

     Computing kpt #:    66  of   151
     total cpu time spent up to now is       31.5 secs

     Computing kpt #:    67  of   151
     total cpu time spent up to now is       32.2 secs

     Computing kpt #:    68  of   151
     total cpu time spent up to now is       33.0 secs

     Computing kpt #:    69  of   151
     total cpu time spent up to now is       33.8 secs

     Computing kpt #:    70  of   151
     total cpu time spent up to now is       34.5 secs

     Computing kpt #:    71  of   151
     total cpu time spent up to now is       35.3 secs

     Computing kpt #:    72  of   151
     total cpu time spent up to now is       36.0 secs

     Computing kpt #:    73  of   151
     total cpu time spent up to now is       36.8 secs

     Computing kpt #:    74  of   151
     total cpu time spent up to now is       37.6 secs

     Computing kpt #:    75  of   151
     total cpu time spent up to now is       38.3 secs

     Computing kpt #:    76  of   151
     total cpu time spent up to now is       38.9 secs

     Computing kpt #:    77  of   151
     total cpu time spent up to now is       39.6 secs

     Computing kpt #:    78  of   151
     total cpu time spent up to now is       40.3 secs

     Computing kpt #:    79  of   151
     total cpu time spent up to now is       41.0 secs

     Computing kpt #:    80  of   151
     total cpu time spent up to now is       41.8 secs

     Computing kpt #:    81  of   151
     total cpu time spent up to now is       42.5 secs

     Computing kpt #:    82  of   151
     total cpu time spent up to now is       43.3 secs

     Computing kpt #:    83  of   151
     total cpu time spent up to now is       44.1 secs

     Computing kpt #:    84  of   151
     total cpu time spent up to now is       44.7 secs

     Computing kpt #:    85  of   151
     total cpu time spent up to now is       45.3 secs

     Computing kpt #:    86  of   151
     total cpu time spent up to now is       45.8 secs

     Computing kpt #:    87  of   151
     total cpu time spent up to now is       46.3 secs

     Computing kpt #:    88  of   151
     total cpu time spent up to now is       46.9 secs

     Computing kpt #:    89  of   151
     total cpu time spent up to now is       48.5 secs

     Computing kpt #:    90  of   151
     total cpu time spent up to now is       49.2 secs

     Computing kpt #:    91  of   151
     total cpu time spent up to now is       49.9 secs

     Computing kpt #:    92  of   151
     total cpu time spent up to now is       50.7 secs

     Computing kpt #:    93  of   151
     total cpu time spent up to now is       51.4 secs

     Computing kpt #:    94  of   151
     total cpu time spent up to now is       52.3 secs

     Computing kpt #:    95  of   151
     total cpu time spent up to now is       53.4 secs

     Computing kpt #:    96  of   151
     total cpu time spent up to now is       54.3 secs

     Computing kpt #:    97  of   151
     total cpu time spent up to now is       55.1 secs

     Computing kpt #:    98  of   151
     total cpu time spent up to now is       56.1 secs

     Computing kpt #:    99  of   151
     total cpu time spent up to now is       57.1 secs

     Computing kpt #:   100  of   151
     total cpu time spent up to now is       58.2 secs

     Computing kpt #:   101  of   151
     total cpu time spent up to now is       59.0 secs

     Computing kpt #:   102  of   151
     total cpu time spent up to now is       60.0 secs

     Computing kpt #:   103  of   151
     total cpu time spent up to now is       60.8 secs

     Computing kpt #:   104  of   151
     total cpu time spent up to now is       61.6 secs

     Computing kpt #:   105  of   151
     total cpu time spent up to now is       62.3 secs

     Computing kpt #:   106  of   151
     total cpu time spent up to now is       62.8 secs

     Computing kpt #:   107  of   151
     total cpu time spent up to now is       63.4 secs

     Computing kpt #:   108  of   151
     total cpu time spent up to now is       64.1 secs

     Computing kpt #:   109  of   151
     c_bands:  1 eigenvalues not converged
     total cpu time spent up to now is       65.0 secs

     Computing kpt #:   110  of   151
     total cpu time spent up to now is       65.7 secs

     Computing kpt #:   111  of   151
     total cpu time spent up to now is       66.5 secs

     Computing kpt #:   112  of   151
     total cpu time spent up to now is       67.1 secs

     Computing kpt #:   113  of   151
     total cpu time spent up to now is       67.9 secs

     Computing kpt #:   114  of   151
     total cpu time spent up to now is       68.5 secs

     Computing kpt #:   115  of   151
     total cpu time spent up to now is       69.1 secs

     Computing kpt #:   116  of   151
     total cpu time spent up to now is       69.7 secs

     Computing kpt #:   117  of   151
     total cpu time spent up to now is       70.2 secs

     Computing kpt #:   118  of   151
     total cpu time spent up to now is       70.7 secs

     Computing kpt #:   119  of   151
     total cpu time spent up to now is       71.3 secs

     Computing kpt #:   120  of   151
     total cpu time spent up to now is       71.9 secs

     Computing kpt #:   121  of   151
     total cpu time spent up to now is       72.3 secs

     Computing kpt #:   122  of   151
     total cpu time spent up to now is       72.7 secs

     Computing kpt #:   123  of   151
     total cpu time spent up to now is       73.2 secs

     Computing kpt #:   124  of   151
     total cpu time spent up to now is       73.7 secs

     Computing kpt #:   125  of   151
     total cpu time spent up to now is       74.1 secs

     Computing kpt #:   126  of   151
     total cpu time spent up to now is       74.5 secs

     Computing kpt #:   127  of   151
     total cpu time spent up to now is       74.9 secs

     Computing kpt #:   128  of   151
     total cpu time spent up to now is       75.3 secs

     Computing kpt #:   129  of   151
     total cpu time spent up to now is       75.8 secs

     Computing kpt #:   130  of   151
     total cpu time spent up to now is       76.1 secs

     Computing kpt #:   131  of   151
     total cpu time spent up to now is       76.5 secs

     Computing kpt #:   132  of   151
     total cpu time spent up to now is       76.9 secs

     Computing kpt #:   133  of   151
     total cpu time spent up to now is       77.3 secs

     Computing kpt #:   134  of   151
     total cpu time spent up to now is       77.6 secs

     Computing kpt #:   135  of   151
     total cpu time spent up to now is       77.9 secs

     Computing kpt #:   136  of   151
     total cpu time spent up to now is       78.2 secs

     Computing kpt #:   137  of   151
     total cpu time spent up to now is       78.5 secs

     Computing kpt #:   138  of   151
     total cpu time spent up to now is       78.8 secs

     Computing kpt #:   139  of   151
     total cpu time spent up to now is       79.1 secs

     Computing kpt #:   140  of   151
     total cpu time spent up to now is       79.4 secs

     Computing kpt #:   141  of   151
     total cpu time spent up to now is       79.8 secs

     Computing kpt #:   142  of   151
     total cpu time spent up to now is       80.2 secs

     Computing kpt #:   143  of   151
     total cpu time spent up to now is       80.5 secs

     Computing kpt #:   144  of   151
     total cpu time spent up to now is       81.7 secs

     Computing kpt #:   145  of   151
     total cpu time spent up to now is       82.0 secs

     Computing kpt #:   146  of   151
     total cpu time spent up to now is       82.3 secs

     Computing kpt #:   147  of   151
     total cpu time spent up to now is       82.7 secs

     Computing kpt #:   148  of   151
     total cpu time spent up to now is       82.9 secs

     Computing kpt #:   149  of   151
     total cpu time spent up to now is       83.3 secs

     Computing kpt #:   150  of   151
     total cpu time spent up to now is       83.7 secs

     Computing kpt #:   151  of   151
     total cpu time spent up to now is       84.1 secs

     ethr =  5.00E-12,  avg # of iterations = 48.6

     total cpu time spent up to now is       84.1 secs

     End of band structure calculation

          k = 0.0000 0.0000 0.0000 (  2825 PWs)   bands (ev):

   -21.4981  -9.6443  -4.9198  -4.9198   1.3293   2.0987   2.2721   4.0097
     4.6773   6.4633   6.4633   7.4447   8.4047   9.6690  10.9602  12.1200

          k = 0.0100 0.0058 0.0000 (  2821 PWs)   bands (ev):

   -21.4957  -9.6414  -4.9297  -4.9252   1.3325   2.1020   2.2754   4.0130
     4.6806   6.4647   6.4738   7.4478   8.4080   9.6605  10.9642  12.1231

          k = 0.0200 0.0115 0.0000 (  2821 PWs)   bands (ev):

   -21.4885  -9.6328  -4.9594  -4.9411   1.3423   2.1118   2.2853   4.0227
     4.6902   6.4690   6.5054   7.4574   8.4180   9.6351  10.9761  12.1321

          k = 0.0300 0.0173 0.0000 (  2817 PWs)   bands (ev):

   -21.4766  -9.6185  -5.0085  -4.9675   1.3585   2.1282   2.3017   4.0390
     4.7063   6.4757   6.5579   7.4733   8.4346   9.5929  10.9962  12.1472

          k = 0.0400 0.0231 0.0000 (  2819 PWs)   bands (ev):

   -21.4599  -9.5985  -5.0766  -5.0040   1.3812   2.1512   2.3247   4.0617
     4.7288   6.4844   6.6307   7.4955   8.4577   9.5341  11.0247  12.1684

          k = 0.0500 0.0289 0.0000 (  2819 PWs)   bands (ev):

   -21.4385  -9.5728  -5.1630  -5.0501   1.4105   2.1807   2.3543   4.0909
     4.7578   6.4945   6.7236   7.5242   8.4875   9.4591  11.0618  12.1955

          k = 0.0600 0.0346 0.0000 (  2819 PWs)   bands (ev):

   -21.4123  -9.5413  -5.2671  -5.1052   1.4462   2.2168   2.3904   4.1266
     4.7932   6.5053   6.8358   7.5591   8.5238   9.3683  11.1079  12.2287

          k = 0.0700 0.0404 0.0000 (  2815 PWs)   bands (ev):

   -21.3814  -9.5042  -5.3880  -5.1688   1.4884   2.2595   2.4331   4.1688
     4.8350   6.5159   6.9669   7.6004   8.5666   9.2622  11.1631  12.2677

          k = 0.0800 0.0462 0.0000 (  2819 PWs)   bands (ev):

   -21.3457  -9.4614  -5.5248  -5.2401   1.5371   2.3087   2.4824   4.2175
     4.8833   6.5256   7.1158   7.6479   8.6160   9.1412  11.2279  12.3128

          k = 0.0900 0.0520 0.0000 (  2827 PWs)   bands (ev):

   -21.3053  -9.4130  -5.6763  -5.3185   1.5923   2.3645   2.5383   4.2726
     4.9380   6.5337   7.2819   7.7018   8.6717   9.0060  11.3022  12.3636

          k = 0.1000 0.0577 0.0000 (  2831 PWs)   bands (ev):

   -21.2602  -9.3589  -5.8417  -5.4031   1.6539   2.4268   2.6008   4.3342
     4.9991   6.5394   7.4644   7.7619   8.7339   8.8573  11.3863  12.4204

          k = 0.1100 0.0635 0.0000 (  2843 PWs)   bands (ev):

   -21.2103  -9.2991  -6.0199  -5.4932   1.7221   2.4956   2.6698   4.4023
     5.0666   6.5423   7.6624   7.8280   8.6958   8.8025  11.4801  12.4829

          k = 0.1200 0.0693 0.0000 (  2845 PWs)   bands (ev):

   -21.1557  -9.2338  -6.2098  -5.5881   1.7968   2.5710   2.7454   4.4768
     5.1405   6.5419   7.8750   7.8999   8.5224   8.8773  11.5835  12.5511

          k = 0.1300 0.0751 0.0000 (  2845 PWs)   bands (ev):

   -21.0964  -9.1629  -6.4103  -5.6871   1.8779   2.6530   2.8275   4.5577
     5.2207   6.5380   7.9764   8.1015   8.3392   8.9586  11.6961  12.6250

          k = 0.1400 0.0808 0.0000 (  2853 PWs)   bands (ev):

   -21.0324  -9.0865  -6.6206  -5.7893   1.9656   2.7414   2.9163   4.6450
     5.3072   6.5305   8.0430   8.1612   8.3410   9.0461  11.8174  12.7045

          k = 0.1500 0.0866 0.0000 (  2859 PWs)   bands (ev):

   -20.9637  -9.0046  -6.8396  -5.8942   2.0597   2.8364   3.0116   4.7387
     5.3999   6.5194   7.9183   8.1704   8.5927   9.1399  11.9469  12.7895

          k = 0.1600 0.0924 0.0000 (  2857 PWs)   bands (ev):

   -20.8903  -8.9172  -7.0665  -6.0011   2.1603   2.9378   3.1135   4.8387
     5.4986   6.5050   7.7070   8.2630   8.8559   9.2399  12.0838  12.8798

          k = 0.1700 0.0981 0.0000 (  2861 PWs)   bands (ev):

   -20.8123  -8.8244  -7.3003  -6.1094   2.2674   3.0458   3.2220   4.9449
     5.6031   6.4877   7.4831   8.3657   9.1296   9.3463  12.2274  12.9753

          k = 0.1800 0.1039 0.0000 (  2861 PWs)   bands (ev):

   -20.7296  -8.7262  -7.5403  -6.2185   2.3809   3.1601   3.3370   5.0573
     5.7130   6.4681   7.2504   8.4755   9.4133   9.4589  12.3766  13.0759

          k = 0.1900 0.1097 0.0000 (  2863 PWs)   bands (ev):

   -20.6423  -8.6226  -7.7858  -6.3280   2.5009   3.2809   3.4586   5.1755
     5.8273   6.4474   7.0104   8.5917   9.5778   9.7061  12.5304  13.1814

          k = 0.2000 0.1155 0.0000 (  2859 PWs)   bands (ev):

   -20.5503  -8.5138  -8.0359  -6.4373   2.6273   3.4081   3.5867   5.2992
     5.9439   6.4281   6.7643   8.7141   9.7030  10.0075  12.6876  13.2916

          k = 0.2100 0.1212 0.0000 (  2859 PWs)   bands (ev):

   -20.4537  -8.3998  -8.2901  -6.5461   2.7602   3.5416   3.7214   5.4273
     6.0575   6.4160   6.5141   8.8428   9.8345  10.3166  12.8470  13.4061

          k = 0.2200 0.1270 0.0000 (  2857 PWs)   bands (ev):

   -20.3526  -8.5476  -8.2807  -6.6539   2.8995   3.6812   3.8627   5.5562
     6.1521   6.2640   6.4274   8.9775   9.9722  10.6327  13.0072  13.5246

          k = 0.2300 0.1328 0.0000 (  2861 PWs)   bands (ev):

   -20.2468  -8.8081  -8.1565  -6.7603   3.0452   3.8268   4.0105   5.6669
     6.0341   6.1994   6.4908   9.1183  10.1163  10.9553  13.1664  13.6467

          k = 0.2400 0.1386 0.0000 (  2855 PWs)   bands (ev):

   -20.1366  -9.0709  -8.0273  -6.8650   3.1973   3.9778   4.1648   5.6272
     5.9575   6.2003   6.6058   9.2650  10.2665  11.2837  13.3230  13.7717

          k = 0.2500 0.1443 0.0000 (  2855 PWs)   bands (ev):

   -20.0218  -9.3355  -7.8933  -6.9676   3.3558   4.1333   4.3256   5.4024
     6.0705   6.1797   6.7479   9.4176  10.4231  11.6170  13.4745  13.8991

          k = 0.2600 0.1501 0.0000 (  2859 PWs)   bands (ev):

   -19.9025  -9.6014  -7.7546  -7.0680   3.5206   4.2899   4.4929   5.1464
     6.1506   6.2232   6.9045   9.5760  10.5859  11.9545  13.6184  14.0278

          k = 0.2700 0.1559 0.0000 (  2855 PWs)   bands (ev):

   -19.7787  -9.8683  -7.6112  -7.1658   3.6918   4.4323   4.6666   4.9019
     6.1177   6.3889   7.0710   9.7401  10.7549  12.2957  13.7515  14.1567

          k = 0.2800 0.1617 0.0000 (  2851 PWs)   bands (ev):

   -19.6505 -10.1358  -7.4634  -7.2608   3.8692   4.4490   4.7851   4.8467
     6.0833   6.5632   7.2458   9.9097  10.9301  12.6396  13.8701  14.2838

          k = 0.2900 0.1674 0.0000 (  2849 PWs)   bands (ev):

   -19.5179 -10.4034  -7.3529  -7.3113   4.0529   4.2380   4.9002   5.0329
     6.0485   6.7448   7.4281  10.0848  11.1115  12.9855  13.9692  14.4069

          k = 0.3000 0.1732 0.0000 (  2850 PWs)   bands (ev):

   -19.3809 -10.6708  -7.4416  -7.1551   3.9715   4.2428   5.0758   5.2251
     6.0144   6.9333   7.6174  10.2653  11.2991  13.3325  14.0432  14.5224

          k = 0.3100 0.1790 0.0000 (  2858 PWs)   bands (ev):

   -19.2396 -10.9377  -7.5270  -6.9950   3.6945   4.4387   5.2679   5.4221
     5.9824   7.1283   7.8136  10.4508  11.4928  13.6795  14.0853  14.6249

          k = 0.3200 0.1848 0.0000 (  2866 PWs)   bands (ev):

   -19.0940 -11.2039  -7.6088  -6.8313   3.4146   4.6405   5.4697   5.6207
     5.9566   7.3296   8.0164  10.6412  11.6925  14.0257  14.0888  14.7067

          k = 0.3300 0.1905 0.0000 (  2862 PWs)   bands (ev):

   -18.9441 -11.4689  -7.6870  -6.6643   3.1344   4.8477   5.6792   5.7959
     5.9623   7.5372   8.2258  10.8362  11.8983  14.0472  14.3699  14.7560

          k = 0.3400 0.1963 0.0000 (  2862 PWs)   bands (ev):

   -18.7901 -11.7325  -7.7612  -6.4945   2.8552   5.0597   5.8462   5.8959
     6.1021   7.7510   8.4417  11.0355  12.1099  13.9563  14.7109  14.7575

          k = 0.3500 0.2021 0.0000 (  2866 PWs)   bands (ev):

   -18.6320 -11.9945  -7.8315  -6.3221   2.5782   5.2742   5.8353   6.1193
     6.3146   7.9708   8.6641  11.2384  12.3274  13.8156  14.6956  15.0474

          k = 0.3600 0.2078 0.0000 (  2878 PWs)   bands (ev):

   -18.4698 -12.2546  -7.8978  -6.1478   2.3044   5.4831   5.8283   6.3493
     6.5431   8.1966   8.8928  11.4442  12.5505  13.6287  14.5640  15.3780

          k = 0.3700 0.2136 0.0000 (  2872 PWs)   bands (ev):

   -18.3037 -12.5125  -7.9598  -5.9721   2.0348   5.6438   5.8749   6.5858
     6.7805   8.4282   9.1279  11.6519  12.7786  13.4029  14.3705  15.2048

          k = 0.3800 0.2194 0.0000 (  2872 PWs)   bands (ev):

   -18.1338 -12.7680  -8.0176  -5.7959   1.7704   5.6876   6.0452   6.8285
     7.0254   8.6656   9.3692  11.8597  13.0030  13.1546  14.1315  14.8139

          k = 0.3900 0.2252 0.0000 (  2864 PWs)   bands (ev):

   -17.9603 -13.0208  -8.0711  -5.6201   1.5126   5.6812   6.2733   7.0775
     7.2773   8.9086   9.6168  12.0643  12.8536  13.2617  13.8644  14.4258

          k = 0.4000 0.2309 0.0000 (  2864 PWs)   bands (ev):

   -17.7832 -13.2705  -8.1201  -5.4458   1.2627   5.6652   6.5187   7.3327
     7.5359   9.1570   9.8705  12.2586  12.5563  13.5048  13.5862  14.0415

          k = 0.4100 0.2367 0.0000 (  2868 PWs)   bands (ev):

   -17.6030 -13.5168  -8.1646  -5.2744   1.0223   5.6474   6.7737   7.5939
     7.8012   9.4106  10.1304  12.2453  12.4225  13.3223  13.6590  13.7574

          k = 0.4200 0.2425 0.0000 (  2878 PWs)   bands (ev):

   -17.4200 -13.7592  -8.2046  -5.1078   0.7934   5.6301   7.0361   7.8610
     8.0731   9.6691  10.3961  11.9265  12.4911  13.1385  13.2851  14.0114

          k = 0.4300 0.2483 0.0000 (  2878 PWs)   bands (ev):

   -17.2347 -13.9971  -8.2400  -4.9480   0.5783   5.6142   7.3052   8.1340
     8.3515   9.9319  10.6676  11.6034  12.3655  12.9147  13.1271  14.2691

          k = 0.4400 0.2540 0.0000 (  2890 PWs)   bands (ev):

   -17.0480 -14.2296  -8.2708  -4.7978   0.3798   5.5999   7.5805   8.4127
     8.6364  10.1983  10.9431  11.2801  12.1095  12.5497  13.1991  14.0491

          k = 0.4500 0.2598 0.0000 (  2878 PWs)   bands (ev):

   -16.8612 -14.4551  -8.2969  -4.6604   0.2014   5.5876   7.8616   8.6967
     8.9277  10.4662  10.9462  11.2347  11.8137  12.1903  13.1982  13.9366

          k = 0.4600 0.2656 0.0000 (  2872 PWs)   bands (ev):

   -16.6769 -14.6712  -8.3183  -4.5394   0.0467   5.5774   8.1485   8.9860
     9.2254  10.6245  10.7291  11.5130  11.5207  11.8370  13.0507  13.9759

          k = 0.4700 0.2714 0.0000 (  2864 PWs)   bands (ev):

   -16.4997 -14.8731  -8.3349  -4.4390  -0.0800   5.5694   8.4406   9.2798
     9.5292  10.3030  10.9358  11.2666  11.4880  11.8162  12.8163  13.6865

          k = 0.4800 0.2771 0.0000 (  2876 PWs)   bands (ev):

   -16.3398 -15.0508  -8.3469  -4.3633  -0.1745   5.5636   8.7375   9.5772
     9.8359   9.9881  10.8020  11.1467  11.3597  12.1157  12.5544  13.3647

          k = 0.4900 0.2829 0.0000 (  2880 PWs)   bands (ev):

   -16.2178 -15.1834  -8.3540  -4.3161  -0.2330   5.5601   9.0375   9.6685
     9.8741  10.1590  10.5155  10.8113  11.5954  12.3002  12.4205  13.0465

          k = 0.5000 0.2887 0.0000 (  2884 PWs)   bands (ev):

   -16.1695 -15.2353  -8.3564  -4.3001  -0.2528   5.5589   9.2901   9.4120
    10.1008  10.2889  10.4677  10.4957  11.7396  12.1526  12.7104  12.7521

          k = 0.4967 0.2944 0.0000 (  2880 PWs)   bands (ev):

   -16.1688 -15.2346  -8.3600  -4.2991  -0.2530   5.5638   9.2911   9.4130
    10.1009  10.2900  10.4688  10.4968  11.7393  12.1537  12.7113  12.7531

          k = 0.4933 0.3002 0.0000 (  2880 PWs)   bands (ev):

   -16.1668 -15.2325  -8.3708  -4.2962  -0.2536   5.5783   9.2939   9.4160
    10.1014  10.2932  10.4720  10.5000  11.7384  12.1570  12.7140  12.7561

          k = 0.4900 0.3060 0.0000 (  2880 PWs)   bands (ev):

   -16.1634 -15.2291  -8.3887  -4.2914  -0.2546   5.6025   9.2986   9.4210
    10.1021  10.2987  10.4773  10.5054  11.7369  12.1624  12.7185  12.7610

          k = 0.4867 0.3118 0.0000 (  2876 PWs)   bands (ev):

   -16.1587 -15.2242  -8.4137  -4.2846  -0.2560   5.6362   9.3052   9.4280
    10.1030  10.3064  10.4847  10.5129  11.7348  12.1700  12.7248  12.7680

          k = 0.4833 0.3175 0.0000 (  2870 PWs)   bands (ev):

   -16.1527 -15.2180  -8.4457  -4.2758  -0.2578   5.6793   9.3136   9.4370
    10.1040  10.3163  10.4943  10.5226  11.7320  12.1798  12.7329  12.7769

          k = 0.4800 0.3233 0.0000 (  2874 PWs)   bands (ev):

   -16.1452 -15.2104  -8.4844  -4.2652  -0.2600   5.7317   9.3240   9.4479
    10.1049  10.3283  10.5060  10.5344  11.7285  12.1918  12.7428  12.7878

          k = 0.4767 0.3291 0.0000 (  2879 PWs)   bands (ev):

   -16.1365 -15.2015  -8.5298  -4.2526  -0.2628   5.7930   9.3361   9.4609
    10.1056  10.3426  10.5198  10.5484  11.7242  12.2060  12.7545  12.8007

          k = 0.4733 0.3349 0.0000 (  2881 PWs)   bands (ev):

   -16.1264 -15.1912  -8.5816  -4.2380  -0.2661   5.8633   9.3502   9.4759
    10.1059  10.3590  10.5357  10.5645  11.7192  12.2224  12.7679  12.8156

          k = 0.4700 0.3406 0.0000 (  2883 PWs)   bands (ev):

   -16.1149 -15.1795  -8.6396  -4.2215  -0.2699   5.9421   9.3661   9.4928
    10.1055  10.3776  10.5538  10.5827  11.7135  12.2409  12.7830  12.8324

          k = 0.4667 0.3464 0.0000 (  2891 PWs)   bands (ev):

   -16.1021 -15.1665  -8.7035  -4.2031  -0.2744   6.0293   9.3838   9.5117
    10.1042  10.3985  10.5740  10.6031  11.7069  12.2616  12.7999  12.8511

          k = 0.4633 0.3522 0.0000 (  2891 PWs)   bands (ev):

   -16.0879 -15.1522  -8.7732  -4.1828  -0.2795   6.1246   9.4034   9.5325
    10.1015  10.4215  10.5963  10.6256  11.6998  12.2845  12.8185  12.8719

          k = 0.4600 0.3580 0.0000 (  2895 PWs)   bands (ev):

   -16.0724 -15.1365  -8.8484  -4.1605  -0.2854   6.2276   9.4248   9.5553
    10.0972  10.4467  10.6207  10.6503  11.6921  12.3096  12.8388  12.8945

          k = 0.4567 0.3637 0.0000 (  2901 PWs)   bands (ev):

   -16.0556 -15.1195  -8.9287  -4.1363  -0.2920   6.3381   9.4480   9.5801
    10.0908  10.4741  10.6472  10.6771  11.6840  12.3368  12.8607  12.9191

          k = 0.4533 0.3695 0.0000 (  2897 PWs)   bands (ev):

   -16.0374 -15.1013  -9.0140  -4.1101  -0.2995   6.4558   9.4730   9.6068
    10.0819  10.5037  10.6758  10.7061  11.6759  12.3662  12.8842  12.9456

          k = 0.4500 0.3753 0.0000 (  2893 PWs)   bands (ev):

   -16.0178 -15.0817  -9.1038  -4.0820  -0.3080   6.5803   9.4998   9.6354
    10.0700  10.5354  10.7065  10.7371  11.6681  12.3979  12.9094  12.9739

          k = 0.4467 0.3811 0.0000 (  2895 PWs)   bands (ev):

   -15.9969 -15.0609  -9.1980  -4.0520  -0.3175   6.7112   9.5283   9.6660
    10.0546  10.5694  10.7394  10.7703  11.6611  12.4316  12.9360  13.0042

          k = 0.4433 0.3868 0.0000 (  2895 PWs)   bands (ev):

   -15.9747 -15.0388  -9.2962  -4.0201  -0.3280   6.8483   9.5585   9.6984
    10.0353  10.6056  10.7743  10.8057  11.6553  12.4676  12.9642  13.0363

          k = 0.4400 0.3926 0.0000 (  2891 PWs)   bands (ev):

   -15.9511 -15.0155  -9.3982  -3.9863  -0.3398   6.9912   9.5905   9.7327
    10.0117  10.6439  10.8113  10.8431  11.6513  12.5057  12.9938  13.0703

          k = 0.4367 0.3984 0.0000 (  2891 PWs)   bands (ev):

   -15.9262 -14.9910  -9.5036  -3.9505  -0.3529   7.1395   9.6241   9.7689
     9.9834  10.6844  10.8504  10.8827  11.6496  12.5460  13.0248  13.1060

          k = 0.4333 0.4041 0.0000 (  2889 PWs)   bands (ev):

   -15.8999 -14.9653  -9.6122  -3.9128  -0.3673   7.2928   9.6594   9.8070
     9.9502  10.7272  10.8916  10.9244  11.6509  12.5885  13.0571  13.1436

          k = 0.4300 0.4099 0.0000 (  2891 PWs)   bands (ev):

   -15.8723 -14.9385  -9.7237  -3.8733  -0.3833   7.4509   9.6963   9.8469
     9.9121  10.7721  10.9349  10.9682  11.6557  12.6332  13.0906  13.1829

          k = 0.4267 0.4157 0.0000 (  2887 PWs)   bands (ev):

   -15.8433 -14.9105  -9.8379  -3.8318  -0.4009   7.6133   9.7348   9.8691
     9.8886  10.8192  10.9803  11.0142  11.6642  12.6800  13.1254  13.2240

          k = 0.4233 0.4215 0.0000 (  2891 PWs)   bands (ev):

   -15.8130 -14.8816  -9.9544  -3.7884  -0.4202   7.7797   9.7749   9.8214
     9.9321  10.8684  11.0277  11.0622  11.6769  12.7290  13.1612  13.2668

          k = 0.4200 0.4272 0.0000 (  2895 PWs)   bands (ev):

   -15.7813 -14.8516 -10.0731  -3.7431  -0.4413   7.9496   9.7694   9.8164
     9.9774  10.9199  11.0772  11.1123  11.6939  12.7802  13.1980  13.3112

          k = 0.4167 0.4330 0.0000 (  2901 PWs)   bands (ev):

   -15.7483 -14.8207 -10.1935  -3.6959  -0.4643   8.1227   9.7135   9.8595
    10.0245  10.9736  11.1287  11.1646  11.7155  12.8335  13.2356  13.3573

          k = 0.4133 0.4388 0.0000 (  2897 PWs)   bands (ev):

   -15.7140 -14.7888 -10.3155  -3.6467  -0.4894   8.2985   9.6543   9.9039
    10.0733  11.0294  11.1823  11.2189  11.7415  12.8891  13.2740  13.4049

          k = 0.4100 0.4446 0.0000 (  2897 PWs)   bands (ev):

   -15.6783 -14.7562 -10.4388  -3.5958  -0.5167   8.4767   9.5924   9.9497
    10.1238  11.0874  11.2379  11.2753  11.7720  12.9468  13.3130  13.4540

          k = 0.4067 0.4503 0.0000 (  2907 PWs)   bands (ev):

   -15.6413 -14.7228 -10.5632  -3.5429  -0.5462   8.6567   9.5285   9.9968
    10.1760  11.1476  11.2956  11.3338  11.8068  13.0066  13.3525  13.5046

          k = 0.4033 0.4561 0.0000 (  2907 PWs)   bands (ev):

   -15.6030 -14.6889 -10.6883  -3.4881  -0.5781   8.8381   9.4633  10.0450
    10.2299  11.2100  11.3552  11.3944  11.8459  13.0686  13.3922  13.5566

          k = 0.4000 0.4619 0.0000 (  2897 PWs)   bands (ev):

   -15.5633 -14.6544 -10.8138  -3.4314  -0.6125   9.0202   9.3974  10.0945
    10.2855  11.2746  11.4169  11.4570  11.8890  13.1328  13.4320  13.6099

          k = 0.3967 0.4677 0.0000 (  2905 PWs)   bands (ev):

   -15.5223 -14.6195 -10.9396  -3.3729  -0.6495   9.2024   9.3314  10.1449
    10.3428  11.3413  11.4805  11.5217  11.9360  13.1992  13.4718  13.6643

          k = 0.3933 0.4734 0.0000 (  2905 PWs)   bands (ev):

   -15.4799 -14.5844 -11.0652  -3.3125  -0.6892   9.2661   9.3840  10.1964
    10.4020  11.4102  11.5461  11.5885  11.9868  13.2677  13.5113  13.7199

          k = 0.3900 0.4792 0.0000 (  2909 PWs)   bands (ev):

   -15.4362 -14.5494 -11.1903  -3.2503  -0.7317   9.2018   9.5642  10.2487
    10.4630  11.4814  11.6136  11.6573  12.0410  13.3384  13.5504  13.7764

          k = 0.3867 0.4850 0.0000 (  2913 PWs)   bands (ev):

   -15.3912 -14.5146 -11.3147  -3.1861  -0.7770   9.1393   9.7419  10.3017
    10.5262  11.5546  11.6831  11.7281  12.0987  13.4112  13.5888  13.8338

          k = 0.3833 0.4907 0.0000 (  2913 PWs)   bands (ev):

   -15.3448 -14.4803 -11.4377  -3.1202  -0.8252   9.0788   9.9157  10.3553
    10.5919  11.6301  11.7545  11.8010  12.1595  13.4862  13.6263  13.8918

          k = 0.3800 0.4965 0.0000 (  2913 PWs)   bands (ev):

   -15.2971 -14.4469 -11.5591  -3.0523  -0.8765   9.0209  10.0840  10.4093
    10.6607  11.7077  11.8277  11.8759  12.2234  13.5634  13.6629  13.9502

          k = 0.3767 0.5023 0.0000 (  2927 PWs)   bands (ev):

   -15.2481 -14.4148 -11.6782  -2.9827  -0.9307   8.9660  10.2444  10.4637
    10.7338  11.7876  11.9028  11.9528  12.2901  13.6427  13.6985  14.0086

          k = 0.3733 0.5081 0.0000 (  2927 PWs)   bands (ev):

   -15.1978 -14.3846 -11.7944  -2.9112  -0.9881   8.9143  10.3941  10.5182
    10.8128  11.8695  11.9797  12.0316  12.3596  13.7242  13.7328  14.0667

          k = 0.3700 0.5138 0.0000 (  2927 PWs)   bands (ev):

   -15.1461 -14.3568 -11.9071  -2.8378  -1.0485   8.8662  10.5294  10.5726
    10.8994  11.9537  12.0584  12.1125  12.4315  13.7661  13.8078  14.1235

          k = 0.3667 0.5196 0.0000 (  2919 PWs)   bands (ev):

   -15.0931 -14.3321 -12.0153  -2.7627  -1.1121   8.8218  10.6267  10.6475
    10.9947  12.0400  12.1389  12.1952  12.5058  13.7982  13.8936  14.1779

          k = 0.3633 0.5254 0.0000 (  2927 PWs)   bands (ev):

   -15.0387 -14.3116 -12.1182  -2.6857  -1.1787   8.7814  10.6803  10.7479
    11.0970  12.1285  12.2211  12.2798  12.5821  13.8295  13.9815  14.2268

          k = 0.3600 0.5312 0.0000 (  2923 PWs)   bands (ev):

   -14.9831 -14.2962 -12.2146  -2.6069  -1.2485   8.7452  10.7332  10.8328
    11.2014  12.2192  12.3049  12.3661  12.6600  13.8601  14.0716  14.2621

          k = 0.3567 0.5369 0.0000 (  2929 PWs)   bands (ev):

   -14.9261 -14.2871 -12.3032  -2.5263  -1.3214   8.7132  10.7850  10.9055
    11.3020  12.3120  12.3903  12.4539  12.7392  13.8904  14.1638  14.2506

          k = 0.3533 0.5427 0.0000 (  2935 PWs)   bands (ev):

   -14.8678 -14.2856 -12.3827  -2.4439  -1.3973   8.6856  10.8355  10.9680
    11.3932  12.4070  12.4773  12.5431  12.8189  13.9209  14.1376  14.2581

          k = 0.3500 0.5485 0.0000 (  2939 PWs)   bands (ev):

   -14.8083 -14.2929 -12.4518  -2.3598  -1.4761   8.6623  10.8844  11.0215
    11.4707  12.5042  12.5658  12.6334  12.8979  13.9520  13.9731  14.2014

          k = 0.3467 0.5543 0.0000 (  2943 PWs)   bands (ev):

   -14.7473 -14.3102 -12.5092  -2.2738  -1.5579   8.6434  10.9315  11.0653
    11.5317  12.6035  12.6557  12.7244  12.9738  13.7979  13.9843  14.0455

          k = 0.3433 0.5600 0.0000 (  2939 PWs)   bands (ev):

   -14.6851 -14.3384 -12.5541  -2.1861  -1.6425   8.6289  10.9763  11.0979
    11.5747  12.7049  12.7470  12.8158  13.0417  13.6197  13.8831  14.0183

          k = 0.3400 0.5658 0.0000 (  2933 PWs)   bands (ev):

   -14.6215 -14.3780 -12.5859  -2.0966  -1.7299   8.6187  11.0185  11.1163
    11.6007  12.8086  12.8397  12.9069  13.0902  13.4396  13.7329  14.0548

          k = 0.3367 0.5716 0.0000 (  2925 PWs)   bands (ev):

   -14.5567 -14.4289 -12.6046  -2.0054  -1.8199   8.6127  11.0580  11.1165
    11.6126  12.9143  12.9335  12.9952  13.0936  13.2597  13.6240  14.0943

          k = 0.3333 0.5774 0.0000 (  2925 PWs)   bands (ev):

   -14.4906 -14.4906 -12.6106  -1.9125  -1.9125   8.6107  11.0943  11.0943
    11.6155  13.0223  13.0223  13.0287  13.0287  13.1318  13.5875  14.1374

          k = 0.3267 0.5658 0.0000 (  2935 PWs)   bands (ev):

   -14.6424 -14.3544 -12.5886  -2.1048  -1.7214   8.6182  10.9732  11.1566
    11.6109  12.6762  12.7201  13.2223  13.2446  13.2888  13.6629  14.0639

          k = 0.3200 0.5543 0.0000 (  2933 PWs)   bands (ev):

   -14.8243 -14.2130 -12.5287  -2.3060  -1.5235   8.6393  10.7612  11.2037
    11.5991  12.2917  12.3551  13.4205  13.4723  13.4754  13.7438  13.9844

          k = 0.3133 0.5427 0.0000 (  2933 PWs)   bands (ev):

   -15.0270 -14.0665 -12.4401  -2.5150  -1.3189   8.6712  10.4887  11.2348
    11.5631  11.9149  11.9827  13.6234  13.6249  13.6461  13.7148  13.8659

          k = 0.3067 0.5312 0.0000 (  2927 PWs)   bands (ev):

   -15.2433 -13.9148 -12.3297  -2.7306  -1.1076   8.7102  10.1813  11.2497
    11.4213  11.6168  11.6225  13.3791  13.5171  13.8315  13.9289  13.9627

          k = 0.3000 0.5196 0.0000 (  2933 PWs)   bands (ev):

   -15.4678 -13.7581 -12.2027  -2.9519  -0.8898   8.7507   9.8551  11.0852
    11.2491  11.2643  11.5014  13.0643  13.2348  14.0457  14.1222  14.2191

          k = 0.2933 0.5081 0.0000 (  2933 PWs)   bands (ev):

   -15.6970 -13.5963 -12.0626  -3.1778  -0.6657   8.7845   9.5196  10.7145
    10.9315  11.2343  11.3938  12.7445  12.9156  14.2671  14.3369  14.4838

          k = 0.2867 0.4965 0.0000 (  2925 PWs)   bands (ev):

   -15.9283 -13.4295 -11.9118  -3.4073  -0.4352   8.7997   9.1806  10.3443
    10.6265  11.2069  11.2681  12.4347  12.5836  14.4963  14.5639  14.7570

          k = 0.2800 0.4850 0.0000 (  2909 PWs)   bands (ev):

   -16.1599 -13.2577 -11.7522  -3.6394  -0.1987   8.7801   8.8418   9.9794
    10.3591  11.1236  11.1685  12.1446  12.2482  14.7338  14.7997  15.0384

          k = 0.2733 0.4734 0.0000 (  2913 PWs)   bands (ev):

   -16.3904 -13.0810 -11.5850  -3.8732   0.0438   8.5053   8.7077   9.6212
    10.1379  10.9630  11.1208  11.8839  11.9143  14.8766  14.9796  15.0261

          k = 0.2667 0.4619 0.0000 (  2911 PWs)   bands (ev):

   -16.6190 -12.8995 -11.4111  -4.1078   0.2921   8.1730   8.5721   9.2705
     9.9607  10.7893  11.0654  11.5847  11.6642  14.6311  15.0143  15.2333

          k = 0.2600 0.4503 0.0000 (  2901 PWs)   bands (ev):

   -16.8449 -12.7132 -11.2314  -4.3426   0.5460   7.8458   8.3786   8.9276
     9.8075  10.6050  11.0036  11.2617  11.4974  14.3731  14.7545  15.4937

          k = 0.2533 0.4388 0.0000 (  2901 PWs)   bands (ev):

   -17.0675 -12.5221 -11.0464  -4.5766   0.8053   7.5245   8.1439   8.5928
     9.6505  10.4116  10.9365  10.9473  11.3909  14.1225  14.4676  15.7591

          k = 0.2467 0.4272 0.0000 (  2901 PWs)   bands (ev):

   -17.2865 -12.3264 -10.8567  -4.8094   1.0698   7.2097   7.8848   8.2662
     9.4712  10.2098  10.6438  10.8650  11.3401  13.8905  14.1765  16.0268

          k = 0.2400 0.4157 0.0000 (  2897 PWs)   bands (ev):

   -17.5013 -12.1261 -10.6627  -5.0402   1.3393   6.9019   7.6134   7.9479
     9.2663   9.9987  10.3545  10.7901  11.3281  13.6878  13.8865  16.2922

          k = 0.2333 0.4041 0.0000 (  2889 PWs)   bands (ev):

   -17.7118 -11.9214 -10.4648  -5.2686   1.6136   6.6013   7.3372   7.6380
     9.0411   9.7758  10.0838  10.7123  11.3304  13.5262  13.5999  16.5478

          k = 0.2267 0.3926 0.0000 (  2883 PWs)   bands (ev):

   -17.9176 -11.7123 -10.2636  -5.4939   1.8922   6.3083   7.0607   7.3367
     8.8029   9.5389   9.8353  10.6320  11.3215  13.3184  13.4187  16.7809

          k = 0.2200 0.3811 0.0000 (  2883 PWs)   bands (ev):

   -18.1187 -11.4989 -10.0593  -5.7159   2.1751   6.0229   6.7868   7.0438
     8.5579   9.2901   9.6083  10.5496  11.2812  13.0426  13.3748  16.9703

          k = 0.2133 0.3695 0.0000 (  2883 PWs)   bands (ev):

   -18.3147 -11.2815  -9.8524  -5.9339   2.4618   5.7455   6.5173   6.7596
     8.3107   9.0352   9.3980  10.4653  11.1999  12.7733  13.3958  16.8989

          k = 0.2067 0.3580 0.0000 (  2875 PWs)   bands (ev):

   -18.5056 -11.0600  -9.6433  -6.1478   2.7520   5.4760   6.2534   6.4839
     8.0643   8.7797   9.1997  10.3793  11.0792  12.5109  13.4716  16.7168

          k = 0.2000 0.3464 0.0000 (  2871 PWs)   bands (ev):

   -18.6912 -10.8348  -9.4323  -6.3570   3.0452   5.2146   5.9958   6.2169
     7.8208   8.5274   9.0105  10.2916  10.9282  12.2558  13.5849  16.5528

          k = 0.1933 0.3349 0.0000 (  2865 PWs)   bands (ev):

   -18.8714 -10.6059  -9.2199  -6.5614   3.3412   4.9615   5.7452   5.9586
     7.5817   8.2804   8.8288  10.2021  10.7568  12.0081  13.7157  16.4177

          k = 0.1867 0.3233 0.0000 (  2869 PWs)   bands (ev):

   -19.0461 -10.3736  -9.0064  -6.7607   3.6395   4.7166   5.5019   5.7090
     7.3480   8.0398   8.6539  10.1108  10.5733  11.7681  13.8433  16.3238

          k = 0.1800 0.3118 0.0000 (  2865 PWs)   bands (ev):

   -19.2152 -10.1380  -8.7924  -6.9545   3.9395   4.4800   5.2662   5.4680
     7.1205   7.8064   8.4857  10.0174  10.3836  11.5359  13.9472  16.2736

          k = 0.1733 0.3002 0.0000 (  2859 PWs)   bands (ev):

   -19.3787  -9.8996  -8.5783  -7.1427   4.2408   4.2518   5.0385   5.2358
     6.8996   7.5806   8.3241   9.9215  10.1920  11.3116  14.0107  15.9555

          k = 0.1667 0.2887 0.0000 (  2859 PWs)   bands (ev):

   -19.5364  -9.6584  -8.3645  -7.3251   4.0320   4.5428   4.8187   5.0122
     6.6858   7.3628   8.1690   9.8228  10.0013  11.0953  14.0253  15.6217

          k = 0.1600 0.2771 0.0000 (  2855 PWs)   bands (ev):

   -19.6883  -9.4149  -8.1516  -7.5014   3.8207   4.6071   4.7975   4.8448
     6.4794   7.1530   8.0207   9.7207   9.8134  10.8872  13.9933  15.2798

          k = 0.1533 0.2656 0.0000 (  2863 PWs)   bands (ev):

   -19.8344  -9.1695  -7.9401  -7.6715   3.6179   4.4037   4.5914   5.1462
     6.2806   6.9515   7.8791   9.6146   9.6298  10.6872  13.9244  14.9349

          k = 0.1467 0.2540 0.0000 (  2873 PWs)   bands (ev):

   -19.9745  -8.9224  -7.8353  -7.7306   3.4235   4.2088   4.3941   5.4462
     6.0896   6.7584   7.7445   9.4513   9.5037  10.4954  13.8299  14.5916

          k = 0.1400 0.2425 0.0000 (  2869 PWs)   bands (ev):

   -20.1087  -8.6742  -7.9926  -7.5236   3.2378   4.0222   4.2056   5.7442
     5.9066   6.5737   7.6169   9.2788   9.3874  10.3118  13.7195  14.2534

          k = 0.1333 0.2309 0.0000 (  2861 PWs)   bands (ev):

   -20.2369  -8.4254  -8.1432  -7.3198   3.0605   3.8441   4.0258   5.7317
     6.0393   6.3974   7.4964   9.1128   9.2647  10.1365  13.6003  13.9237

          k = 0.1267 0.2194 0.0000 (  2865 PWs)   bands (ev):

   -20.3590  -8.2871  -8.1765  -7.1197   2.8919   3.6745   3.8548   5.5650
     6.2297   6.3304   7.3831   8.9537   9.1348   9.9695  13.4770  13.6053

          k = 0.1200 0.2078 0.0000 (  2869 PWs)   bands (ev):

   -20.4750  -8.4241  -7.9282  -6.9241   2.7319   3.5134   3.6925   5.4065
     6.0705   6.6168   7.2769   8.8018   8.9969   9.8108  13.3008  13.3532

          k = 0.1133 0.1963 0.0000 (  2851 PWs)   bands (ev):

   -20.5849  -8.5542  -7.6812  -6.7335   2.5804   3.3610   3.5390   5.2564
     5.9199   6.8975   7.1780   8.6574   8.8504   9.6605  13.0126  13.2311

          k = 0.1067 0.1848 0.0000 (  2855 PWs)   bands (ev):

   -20.6887  -8.6773  -7.4364  -6.5488   2.4376   3.2172   3.3943   5.1146
     5.7779   7.0862   7.1712   8.5206   8.6949   9.5185  12.7429  13.1124

          k = 0.1000 0.1732 0.0000 (  2855 PWs)   bands (ev):

   -20.7863  -8.7933  -7.1946  -6.3705   2.3034   3.0820   3.2584   4.9813
     5.6445   7.0016   7.4370   8.3916   8.5305   9.3849  12.4931  12.9982

          k = 0.0933 0.1617 0.0000 (  2855 PWs)   bands (ev):

   -20.8777  -8.9020  -6.9570  -6.1994   2.1779   2.9554   3.1312   4.8565
     5.5197   6.9240   7.6936   8.2706   8.3578   9.2597  12.2645  12.8894

          k = 0.0867 0.1501 0.0000 (  2853 PWs)   bands (ev):

   -20.9629  -9.0036  -6.7245  -6.0362   2.0610   2.8375   3.0128   4.7401
     5.4035   6.8534   7.9399   8.1576   8.1781   9.1429  12.0574  12.7866

          k = 0.0800 0.1386 0.0000 (  2843 PWs)   bands (ev):

   -21.0419  -9.0978  -6.4987  -5.8816   1.9527   2.7284   2.9032   4.6323
     5.2960   6.7896   7.9931   8.0527   8.1746   9.0346  11.8719  12.6904

          k = 0.0733 0.1270 0.0000 (  2835 PWs)   bands (ev):

   -21.1146  -9.1846  -6.2808  -5.7363   1.8531   2.6279   2.8024   4.5330
     5.1971   6.7324   7.8053   7.9560   8.3964   8.9347  11.7074  12.6009

          k = 0.0667 0.1155 0.0000 (  2831 PWs)   bands (ev):

   -21.1810  -9.2641  -6.0725  -5.6010   1.7622   2.5361   2.7103   4.4423
     5.1068   6.6816   7.6175   7.8676   8.6042   8.8433  11.5629  12.5187

          k = 0.0600 0.1039 0.0000 (  2829 PWs)   bands (ev):

   -21.2412  -9.3361  -5.8754  -5.4764   1.6799   2.4530   2.6271   4.3602
     5.0251   6.6369   7.4330   7.7874   8.7605   8.7966  11.4373  12.4437

          k = 0.0533 0.0924 0.0000 (  2829 PWs)   bands (ev):

   -21.2950  -9.4006  -5.6915  -5.3630   1.6063   2.3787   2.5526   4.2867
     4.9521   6.5980   7.2553   7.7156   8.6862   8.9726  11.3292  12.3764

          k = 0.0467 0.0808 0.0000 (  2821 PWs)   bands (ev):

   -21.3426  -9.4576  -5.5226  -5.2615   1.5414   2.3131   2.4868   4.2218
     4.8877   6.5647   7.0879   7.6522   8.6205   9.1309  11.2373  12.3166

          k = 0.0400 0.0693 0.0000 (  2817 PWs)   bands (ev):

   -21.3838  -9.5071  -5.3708  -5.1724   1.4851   2.2562   2.4299   4.1656
     4.8318   6.5367   6.9343   7.5972   8.5634   9.2704  11.1603  12.2647

          k = 0.0333 0.0577 0.0000 (  2815 PWs)   bands (ev):

   -21.4187  -9.5490  -5.2380  -5.0961   1.4375   2.2081   2.3817   4.1180
     4.7846   6.5135   6.7977   7.5506   8.5150   9.3903  11.0972  12.2206

          k = 0.0267 0.0462 0.0000 (  2815 PWs)   bands (ev):

   -21.4472  -9.5833  -5.1262  -5.0331   1.3986   2.1687   2.3422   4.0790
     4.7460   6.4951   6.6813   7.5125   8.4754   9.4896  11.0468  12.1845

          k = 0.0200 0.0346 0.0000 (  2819 PWs)   bands (ev):

   -21.4695  -9.6099  -5.0372  -4.9838   1.3683   2.1381   2.3116   4.0487
     4.7160   6.4809   6.5877   7.4828   8.4445   9.5677  11.0084  12.1563

          k = 0.0133 0.0231 0.0000 (  2819 PWs)   bands (ev):

   -21.4853  -9.6290  -4.9724  -4.9483   1.3466   2.1162   2.2897   4.0271
     4.6945   6.4711   6.5192   7.4616   8.4224   9.6238  10.9815  12.1362

          k = 0.0067 0.0115 0.0000 (  2819 PWs)   bands (ev):

   -21.4949  -9.6405  -4.9330  -4.9270   1.3336   2.1030   2.2765   4.0141
     4.6816   6.4652   6.4774   7.4489   8.4092   9.6577  10.9655  12.1241

          k = 0.0000 0.0000 0.0000 (  2825 PWs)   bands (ev):

   -21.4981  -9.6443  -4.9198  -4.9198   1.3293   2.0987   2.2721   4.0097
     4.6773   6.4633   6.4633   7.4447   8.4047   9.6690  10.9602  12.1200

     Writing all to output data dir ./tmp/graphene.save/ :
     XML data file, pseudopotentials, collected wavefunctions

     init_run     :      0.71s CPU      0.72s WALL (       1 calls)
     electrons    :     82.45s CPU     83.30s WALL (       1 calls)

     Called by init_run:
     wfcinit      :      0.00s CPU      0.00s WALL (       1 calls)
     wfcinit:atom :      0.03s CPU      0.03s WALL (     151 calls)
     wfcinit:wfcr :      1.75s CPU      1.74s WALL (     151 calls)
     potinit      :      0.23s CPU      0.24s WALL (       1 calls)
     hinit0       :      0.41s CPU      0.41s WALL (       1 calls)

     Called by electrons:
     c_bands      :     82.45s CPU     83.30s WALL (       1 calls)
     v_of_rho     :      0.04s CPU      0.05s WALL (       1 calls)
     v_h          :      0.00s CPU      0.00s WALL (       1 calls)
     v_xc         :      0.04s CPU      0.04s WALL (       1 calls)
     newd         :      0.03s CPU      0.04s WALL (       1 calls)
     PAW_pot      :      0.04s CPU      0.03s WALL (       1 calls)

     Called by c_bands:
     init_us_2    :      0.04s CPU      0.04s WALL (     151 calls)
     cegterg      :     80.39s CPU     81.12s WALL (     437 calls)

     Called by sum_band:

     Called by *egterg:
     cdiaghg      :      1.76s CPU      1.73s WALL (    7487 calls)
     cegterg:over :     12.22s CPU     11.97s WALL (    7336 calls)
     cegterg:upda :      7.24s CPU      7.08s WALL (    7336 calls)
     cegterg:last :     22.38s CPU     23.50s WALL (    4775 calls)
     h_psi        :     32.16s CPU     32.38s WALL (    7924 calls)
     s_psi        :      3.96s CPU      3.89s WALL (    7924 calls)
     g_psi        :      0.49s CPU      0.48s WALL (    7336 calls)

     Called by h_psi:
     h_psi:calbec :      4.05s CPU      4.79s WALL (    7924 calls)
     vloc_psi     :     23.95s CPU     23.49s WALL (    7924 calls)
                                        0.00s GPU  (    7924 calls)
     add_vuspsi   :      3.94s CPU      3.87s WALL (    7924 calls)

     General routines
     calbec       :      4.04s CPU      4.78s WALL (    7924 calls)
     fft          :      0.35s CPU      0.35s WALL (      13 calls)
     ffts         :      0.15s CPU      0.15s WALL (       1 calls)
     fftw         :     19.14s CPU     18.78s WALL (  143552 calls)
     interpolate  :      0.15s CPU      0.15s WALL (       1 calls)
     davcio       :      0.07s CPU      0.09s WALL (     302 calls)

     Parallel routines

     PAW routines
     PAW_pot      :      0.04s CPU      0.03s WALL (       1 calls)

     PWSCF        :   1m23.26s CPU   1m24.22s WALL


   This run was terminated on:  18: 2:32  18Sep2026            

=------------------------------------------------------------------------------=
   JOB DONE.
=------------------------------------------------------------------------------=
