
     Program PWSCF v.7.5 starts on 18Sep2026 at 18: 0:53 

     This program is part of the open-source Quantum ESPRESSO suite
     for quantum simulation of materials; please cite
         "P. Giannozzi et al., J. Phys.:Condens. Matter 21 395502 (2009);
         "P. Giannozzi et al., J. Phys.:Condens. Matter 29 465901 (2017);
         "P. Giannozzi et al., J. Chem. Phys. 152 154105 (2020);
          URL http://www.quantum-espresso.org", 
     in publications or presentations arising from this work. More details at
     http://www.quantum-espresso.org/quote

     Parallel version (MPI), running on     1 processors

     MPI processes distributed on     1 nodes
     7041 MiB available memory on the printing compute node when the environment starts

     Waiting for input...
     Reading input from standard input

     Current dimensions of program PWSCF are:
     Max number of different atomic species (ntypx) = 10
     Max number of k-points (npk) =  40000
     Max angular momentum in pseudopotentials (lmaxx) =  4
     file C.pbesol-n-kjpaw_psl.1.0.0.UPF: wavefunction(s)  2S 2P renormalized
     Message from routine setup:
     using ibrav=0 with symmetry is DISCOURAGED, use correct ibrav instead

     Subspace diagonalization in iterative solution of the eigenvalue problem:
     a serial algorithm will be used


     G-vector sticks info
     --------------------
     sticks:   dense  smooth     PW     G-vecs:    dense   smooth      PW
     Sum         535     265     85                64893    22953    4225

     Using Slab Decomposition



     bravais-lattice index     =            0
     lattice parameter (alat)  =       4.6415  a.u.
     unit-cell volume          =     564.1104 (a.u.)^3
     number of atoms/cell      =            2
     number of atomic types    =            1
     number of electrons       =         8.00
     number of Kohn-Sham states=            4
     kinetic-energy cutoff     =      45.0000  Ry
     charge density cutoff     =     360.0000  Ry
     scf convergence threshold =      4.0E-10
     mixing beta               =       0.4000
     number of iterations used =            8  plain     mixing
     Exchange-correlation= SLA  PW   PSX  PSC
                           (   1   4  10   8   0   0   0)

     celldm(1)=   4.641489  celldm(2)=   0.000000  celldm(3)=   0.000000
     celldm(4)=   0.000000  celldm(5)=   0.000000  celldm(6)=   0.000000

     crystal axes: (cart. coord. in units of alat)
               a(1) = (   1.000000   0.000000   0.000000 )  
               a(2) = (  -0.500000   0.866025   0.000000 )  
               a(3) = (   0.000000   0.000000   6.514207 )  

     reciprocal axes: (cart. coord. in units 2 pi/alat)
               b(1) = (  1.000000  0.577350 -0.000000 )  
               b(2) = (  0.000000  1.154701  0.000000 )  
               b(3) = (  0.000000 -0.000000  0.153511 )  


     PseudoPot. # 1 for C  read from file:
     ./pseudo/C.pbesol-n-kjpaw_psl.1.0.0.UPF
     MD5 check sum: 5f3a56537b2bcef3348431d8311bb923
     Pseudo is Projector augmented-wave + core cor, Zval =  4.0
     Generated using "atomic" code by A. Dal Corso  v.6.0 svn rev. 13079
     Shape of augmentation charge: PSQ
     Using radial grid of 1073 points,  4 beta functions with: 
                l(1) =   0
                l(2) =   0
                l(3) =   1
                l(4) =   1
     Q(r) pseudized with 0 coefficients 


     atomic species   valence    mass     pseudopotential
     C                 4.00    12.01070     C ( 1.00)

     24 Sym. Ops., with inversion, found


                                    s                        frac. trans.

      isym =  1     identity                                     

 cryst.   s( 1) = (     1          0          0      )
                  (     0          1          0      )
                  (     0          0          1      )

 cart.    s( 1) = (  1.0000000  0.0000000  0.0000000 )
                  (  0.0000000  1.0000000  0.0000000 )
                  (  0.0000000  0.0000000  1.0000000 )


      isym =  2     180 deg rotation - cart. axis [0,0,1]        

 cryst.   s( 2) = (    -1          0          0      )
                  (     0         -1          0      )
                  (     0          0          1      )

 cart.    s( 2) = ( -1.0000000  0.0000000  0.0000000 )
                  (  0.0000000 -1.0000000  0.0000000 )
                  (  0.0000000  0.0000000  1.0000000 )


      isym =  3     180 deg rotation - cart. axis [0,1,0]        

 cryst.   s( 3) = (    -1          0          0      )
                  (     1          1          0      )
                  (     0          0         -1      )

 cart.    s( 3) = ( -1.0000000  0.0000000  0.0000000 )
                  (  0.0000000  1.0000000  0.0000000 )
                  (  0.0000000  0.0000000 -1.0000000 )


      isym =  4     180 deg rotation - cart. axis [1,0,0]        

 cryst.   s( 4) = (     1          0          0      )
                  (    -1         -1          0      )
                  (     0          0         -1      )

 cart.    s( 4) = (  1.0000000  0.0000000  0.0000000 )
                  (  0.0000000 -1.0000000  0.0000000 )
                  (  0.0000000  0.0000000 -1.0000000 )


      isym =  5      60 deg rotation - cryst. axis [0,0,1]       

 cryst.   s( 5) = (     1          1          0      )
                  (    -1          0          0      )
                  (     0          0          1      )

 cart.    s( 5) = (  0.5000000 -0.8660254  0.0000000 )
                  (  0.8660254  0.5000000  0.0000000 )
                  (  0.0000000  0.0000000  1.0000000 )


      isym =  6      60 deg rotation - cryst. axis [0,0,-1]      

 cryst.   s( 6) = (     0         -1          0      )
                  (     1          1          0      )
                  (     0          0          1      )

 cart.    s( 6) = (  0.5000000  0.8660254  0.0000000 )
                  ( -0.8660254  0.5000000  0.0000000 )
                  (  0.0000000  0.0000000  1.0000000 )


      isym =  7     120 deg rotation - cryst. axis [0,0,1]       

 cryst.   s( 7) = (     0          1          0      )
                  (    -1         -1          0      )
                  (     0          0          1      )

 cart.    s( 7) = ( -0.5000000 -0.8660254  0.0000000 )
                  (  0.8660254 -0.5000000  0.0000000 )
                  (  0.0000000  0.0000000  1.0000000 )


      isym =  8     120 deg rotation - cryst. axis [0,0,-1]      

 cryst.   s( 8) = (    -1         -1          0      )
                  (     1          0          0      )
                  (     0          0          1      )

 cart.    s( 8) = ( -0.5000000  0.8660254  0.0000000 )
                  ( -0.8660254 -0.5000000  0.0000000 )
                  (  0.0000000  0.0000000  1.0000000 )


      isym =  9     180 deg rotation - cryst. axis [1,-1,0]      

 cryst.   s( 9) = (     0         -1          0      )
                  (    -1          0          0      )
                  (     0          0         -1      )

 cart.    s( 9) = (  0.5000000 -0.8660254  0.0000000 )
                  ( -0.8660254 -0.5000000  0.0000000 )
                  (  0.0000000  0.0000000 -1.0000000 )


      isym = 10     180 deg rotation - cryst. axis [2,1,0]       

 cryst.   s(10) = (     1          1          0      )
                  (     0         -1          0      )
                  (     0          0         -1      )

 cart.    s(10) = (  0.5000000  0.8660254  0.0000000 )
                  (  0.8660254 -0.5000000  0.0000000 )
                  (  0.0000000  0.0000000 -1.0000000 )


      isym = 11     180 deg rotation - cryst. axis [0,1,0]       

 cryst.   s(11) = (    -1         -1          0      )
                  (     0          1          0      )
                  (     0          0         -1      )

 cart.    s(11) = ( -0.5000000 -0.8660254  0.0000000 )
                  ( -0.8660254  0.5000000  0.0000000 )
                  (  0.0000000  0.0000000 -1.0000000 )


      isym = 12     180 deg rotation - cryst. axis [1,1,0]       

 cryst.   s(12) = (     0          1          0      )
                  (     1          0          0      )
                  (     0          0         -1      )

 cart.    s(12) = ( -0.5000000  0.8660254  0.0000000 )
                  (  0.8660254  0.5000000  0.0000000 )
                  (  0.0000000  0.0000000 -1.0000000 )


      isym = 13     inversion                                    

 cryst.   s(13) = (    -1          0          0      )
                  (     0         -1          0      )
                  (     0          0         -1      )

 cart.    s(13) = ( -1.0000000  0.0000000  0.0000000 )
                  (  0.0000000 -1.0000000  0.0000000 )
                  (  0.0000000  0.0000000 -1.0000000 )


      isym = 14     inv. 180 deg rotation - cart. axis [0,0,1]   

 cryst.   s(14) = (     1          0          0      )
                  (     0          1          0      )
                  (     0          0         -1      )

 cart.    s(14) = (  1.0000000  0.0000000  0.0000000 )
                  (  0.0000000  1.0000000  0.0000000 )
                  (  0.0000000  0.0000000 -1.0000000 )


      isym = 15     inv. 180 deg rotation - cart. axis [0,1,0]   

 cryst.   s(15) = (     1          0          0      )
                  (    -1         -1          0      )
                  (     0          0          1      )

 cart.    s(15) = (  1.0000000  0.0000000  0.0000000 )
                  (  0.0000000 -1.0000000  0.0000000 )
                  (  0.0000000  0.0000000  1.0000000 )


      isym = 16     inv. 180 deg rotation - cart. axis [1,0,0]   

 cryst.   s(16) = (    -1          0          0      )
                  (     1          1          0      )
                  (     0          0          1      )

 cart.    s(16) = ( -1.0000000  0.0000000  0.0000000 )
                  (  0.0000000  1.0000000  0.0000000 )
                  (  0.0000000  0.0000000  1.0000000 )


      isym = 17     inv.  60 deg rotation - cryst. axis [0,0,1]  

 cryst.   s(17) = (    -1         -1          0      )
                  (     1          0          0      )
                  (     0          0         -1      )

 cart.    s(17) = ( -0.5000000  0.8660254  0.0000000 )
                  ( -0.8660254 -0.5000000  0.0000000 )
                  (  0.0000000  0.0000000 -1.0000000 )


      isym = 18     inv.  60 deg rotation - cryst. axis [0,0,-1] 

 cryst.   s(18) = (     0          1          0      )
                  (    -1         -1          0      )
                  (     0          0         -1      )

 cart.    s(18) = ( -0.5000000 -0.8660254  0.0000000 )
                  (  0.8660254 -0.5000000  0.0000000 )
                  (  0.0000000  0.0000000 -1.0000000 )


      isym = 19     inv. 120 deg rotation - cryst. axis [0,0,1]  

 cryst.   s(19) = (     0         -1          0      )
                  (     1          1          0      )
                  (     0          0         -1      )

 cart.    s(19) = (  0.5000000  0.8660254  0.0000000 )
                  ( -0.8660254  0.5000000  0.0000000 )
                  (  0.0000000  0.0000000 -1.0000000 )


      isym = 20     inv. 120 deg rotation - cryst. axis [0,0,-1] 

 cryst.   s(20) = (     1          1          0      )
                  (    -1          0          0      )
                  (     0          0         -1      )

 cart.    s(20) = (  0.5000000 -0.8660254  0.0000000 )
                  (  0.8660254  0.5000000  0.0000000 )
                  (  0.0000000  0.0000000 -1.0000000 )


      isym = 21     inv. 180 deg rotation - cryst. axis [1,-1,0] 

 cryst.   s(21) = (     0          1          0      )
                  (     1          0          0      )
                  (     0          0          1      )

 cart.    s(21) = ( -0.5000000  0.8660254  0.0000000 )
                  (  0.8660254  0.5000000  0.0000000 )
                  (  0.0000000  0.0000000  1.0000000 )


      isym = 22     inv. 180 deg rotation - cryst. axis [2,1,0]  

 cryst.   s(22) = (    -1         -1          0      )
                  (     0          1          0      )
                  (     0          0          1      )

 cart.    s(22) = ( -0.5000000 -0.8660254  0.0000000 )
                  ( -0.8660254  0.5000000  0.0000000 )
                  (  0.0000000  0.0000000  1.0000000 )


      isym = 23     inv. 180 deg rotation - cryst. axis [0,1,0]  

 cryst.   s(23) = (     1          1          0      )
                  (     0         -1          0      )
                  (     0          0          1      )

 cart.    s(23) = (  0.5000000  0.8660254  0.0000000 )
                  (  0.8660254 -0.5000000  0.0000000 )
                  (  0.0000000  0.0000000  1.0000000 )


      isym = 24     inv. 180 deg rotation - cryst. axis [1,1,0]  

 cryst.   s(24) = (     0         -1          0      )
                  (    -1          0          0      )
                  (     0          0          1      )

 cart.    s(24) = (  0.5000000 -0.8660254  0.0000000 )
                  ( -0.8660254 -0.5000000  0.0000000 )
                  (  0.0000000  0.0000000  1.0000000 )


   Cartesian axes

     site n.     atom                  positions (alat units)
         1        C      tau(   1) = (  -0.0000000   0.5773503   0.0000000  )
         2        C      tau(   2) = (   0.5000000   0.2886751   0.0000000  )

   Crystallographic axes

     site n.     atom                  positions (cryst. coord.)
         1        C      tau(   1) = (  0.3333333  0.6666667  0.0000000  )
         2        C      tau(   2) = (  0.6666667  0.3333333  0.0000000  )

     number of k points=    61
                       cart. coord. in units 2pi/alat
        k(    1) = (   0.0000000   0.0000000   0.0000000), wk =   0.0034722
        k(    2) = (   0.0000000   0.0481125   0.0000000), wk =   0.0208333
        k(    3) = (   0.0000000   0.0962250   0.0000000), wk =   0.0208333
        k(    4) = (   0.0000000   0.1443376   0.0000000), wk =   0.0208333
        k(    5) = (   0.0000000   0.1924501   0.0000000), wk =   0.0208333
        k(    6) = (   0.0000000   0.2405626   0.0000000), wk =   0.0208333
        k(    7) = (   0.0000000   0.2886751   0.0000000), wk =   0.0208333
        k(    8) = (   0.0000000   0.3367877   0.0000000), wk =   0.0208333
        k(    9) = (   0.0000000   0.3849002   0.0000000), wk =   0.0208333
        k(   10) = (   0.0000000   0.4330127   0.0000000), wk =   0.0208333
        k(   11) = (   0.0000000   0.4811252   0.0000000), wk =   0.0208333
        k(   12) = (   0.0000000   0.5292377   0.0000000), wk =   0.0208333
        k(   13) = (   0.0000000  -0.5773503   0.0000000), wk =   0.0104167
        k(   14) = (   0.0416667   0.0721688   0.0000000), wk =   0.0208333
        k(   15) = (   0.0416667   0.1202813   0.0000000), wk =   0.0416667
        k(   16) = (   0.0416667   0.1683938   0.0000000), wk =   0.0416667
        k(   17) = (   0.0416667   0.2165064   0.0000000), wk =   0.0416667
        k(   18) = (   0.0416667   0.2646189   0.0000000), wk =   0.0416667
        k(   19) = (   0.0416667   0.3127314   0.0000000), wk =   0.0416667
        k(   20) = (   0.0416667   0.3608439   0.0000000), wk =   0.0416667
        k(   21) = (   0.0416667   0.4089564   0.0000000), wk =   0.0416667
        k(   22) = (   0.0416667   0.4570690   0.0000000), wk =   0.0416667
        k(   23) = (   0.0416667   0.5051815   0.0000000), wk =   0.0416667
        k(   24) = (   0.0416667   0.5532940   0.0000000), wk =   0.0416667
        k(   25) = (   0.0833333   0.1443376   0.0000000), wk =   0.0208333
        k(   26) = (   0.0833333   0.1924501   0.0000000), wk =   0.0416667
        k(   27) = (   0.0833333   0.2405626   0.0000000), wk =   0.0416667
        k(   28) = (   0.0833333   0.2886751   0.0000000), wk =   0.0416667
        k(   29) = (   0.0833333   0.3367877   0.0000000), wk =   0.0416667
        k(   30) = (   0.0833333   0.3849002   0.0000000), wk =   0.0416667
        k(   31) = (   0.0833333   0.4330127   0.0000000), wk =   0.0416667
        k(   32) = (   0.0833333   0.4811252   0.0000000), wk =   0.0416667
        k(   33) = (   0.0833333   0.5292377   0.0000000), wk =   0.0416667
        k(   34) = (   0.0833333   0.5773503   0.0000000), wk =   0.0208333
        k(   35) = (   0.1250000   0.2165064   0.0000000), wk =   0.0208333
        k(   36) = (   0.1250000   0.2646189   0.0000000), wk =   0.0416667
        k(   37) = (   0.1250000   0.3127314   0.0000000), wk =   0.0416667
        k(   38) = (   0.1250000   0.3608439   0.0000000), wk =   0.0416667
        k(   39) = (   0.1250000   0.4089564   0.0000000), wk =   0.0416667
        k(   40) = (   0.1250000   0.4570690   0.0000000), wk =   0.0416667
        k(   41) = (   0.1250000   0.5051815   0.0000000), wk =   0.0416667
        k(   42) = (   0.1250000   0.5532940   0.0000000), wk =   0.0416667
        k(   43) = (   0.1666667   0.2886751   0.0000000), wk =   0.0208333
        k(   44) = (   0.1666667   0.3367877   0.0000000), wk =   0.0416667
        k(   45) = (   0.1666667   0.3849002   0.0000000), wk =   0.0416667
        k(   46) = (   0.1666667   0.4330127   0.0000000), wk =   0.0416667
        k(   47) = (   0.1666667   0.4811252   0.0000000), wk =   0.0416667
        k(   48) = (   0.1666667   0.5292377   0.0000000), wk =   0.0416667
        k(   49) = (   0.1666667   0.5773503   0.0000000), wk =   0.0208333
        k(   50) = (   0.2083333   0.3608439   0.0000000), wk =   0.0208333
        k(   51) = (   0.2083333   0.4089564   0.0000000), wk =   0.0416667
        k(   52) = (   0.2083333   0.4570690   0.0000000), wk =   0.0416667
        k(   53) = (   0.2083333   0.5051815   0.0000000), wk =   0.0416667
        k(   54) = (   0.2083333   0.5532940   0.0000000), wk =   0.0416667
        k(   55) = (   0.2500000   0.4330127   0.0000000), wk =   0.0208333
        k(   56) = (   0.2500000   0.4811252   0.0000000), wk =   0.0416667
        k(   57) = (   0.2500000   0.5292377   0.0000000), wk =   0.0416667
        k(   58) = (   0.2500000   0.5773503   0.0000000), wk =   0.0208333
        k(   59) = (   0.2916667   0.5051815   0.0000000), wk =   0.0208333
        k(   60) = (   0.2916667   0.5532940   0.0000000), wk =   0.0416667
        k(   61) = (   0.3333333   0.5773503   0.0000000), wk =   0.0069444

                       cryst. coord.
        k(    1) = (   0.0000000   0.0000000   0.0000000), wk =   0.0034722
        k(    2) = (   0.0000000   0.0416667   0.0000000), wk =   0.0208333
        k(    3) = (   0.0000000   0.0833333   0.0000000), wk =   0.0208333
        k(    4) = (   0.0000000   0.1250000   0.0000000), wk =   0.0208333
        k(    5) = (   0.0000000   0.1666667   0.0000000), wk =   0.0208333
        k(    6) = (   0.0000000   0.2083333   0.0000000), wk =   0.0208333
        k(    7) = (   0.0000000   0.2500000   0.0000000), wk =   0.0208333
        k(    8) = (   0.0000000   0.2916667   0.0000000), wk =   0.0208333
        k(    9) = (   0.0000000   0.3333333   0.0000000), wk =   0.0208333
        k(   10) = (   0.0000000   0.3750000   0.0000000), wk =   0.0208333
        k(   11) = (   0.0000000   0.4166667   0.0000000), wk =   0.0208333
        k(   12) = (   0.0000000   0.4583333   0.0000000), wk =   0.0208333
        k(   13) = (   0.0000000  -0.5000000   0.0000000), wk =   0.0104167
        k(   14) = (   0.0416667   0.0416667   0.0000000), wk =   0.0208333
        k(   15) = (   0.0416667   0.0833333   0.0000000), wk =   0.0416667
        k(   16) = (   0.0416667   0.1250000   0.0000000), wk =   0.0416667
        k(   17) = (   0.0416667   0.1666667   0.0000000), wk =   0.0416667
        k(   18) = (   0.0416667   0.2083333   0.0000000), wk =   0.0416667
        k(   19) = (   0.0416667   0.2500000   0.0000000), wk =   0.0416667
        k(   20) = (   0.0416667   0.2916667   0.0000000), wk =   0.0416667
        k(   21) = (   0.0416667   0.3333333   0.0000000), wk =   0.0416667
        k(   22) = (   0.0416667   0.3750000   0.0000000), wk =   0.0416667
        k(   23) = (   0.0416667   0.4166667   0.0000000), wk =   0.0416667
        k(   24) = (   0.0416667   0.4583333   0.0000000), wk =   0.0416667
        k(   25) = (   0.0833333   0.0833333   0.0000000), wk =   0.0208333
        k(   26) = (   0.0833333   0.1250000   0.0000000), wk =   0.0416667
        k(   27) = (   0.0833333   0.1666667   0.0000000), wk =   0.0416667
        k(   28) = (   0.0833333   0.2083333   0.0000000), wk =   0.0416667
        k(   29) = (   0.0833333   0.2500000   0.0000000), wk =   0.0416667
        k(   30) = (   0.0833333   0.2916667   0.0000000), wk =   0.0416667
        k(   31) = (   0.0833333   0.3333333   0.0000000), wk =   0.0416667
        k(   32) = (   0.0833333   0.3750000   0.0000000), wk =   0.0416667
        k(   33) = (   0.0833333   0.4166667   0.0000000), wk =   0.0416667
        k(   34) = (   0.0833333   0.4583333   0.0000000), wk =   0.0208333
        k(   35) = (   0.1250000   0.1250000   0.0000000), wk =   0.0208333
        k(   36) = (   0.1250000   0.1666667   0.0000000), wk =   0.0416667
        k(   37) = (   0.1250000   0.2083333   0.0000000), wk =   0.0416667
        k(   38) = (   0.1250000   0.2500000   0.0000000), wk =   0.0416667
        k(   39) = (   0.1250000   0.2916667   0.0000000), wk =   0.0416667
        k(   40) = (   0.1250000   0.3333333   0.0000000), wk =   0.0416667
        k(   41) = (   0.1250000   0.3750000   0.0000000), wk =   0.0416667
        k(   42) = (   0.1250000   0.4166667   0.0000000), wk =   0.0416667
        k(   43) = (   0.1666667   0.1666667   0.0000000), wk =   0.0208333
        k(   44) = (   0.1666667   0.2083333   0.0000000), wk =   0.0416667
        k(   45) = (   0.1666667   0.2500000   0.0000000), wk =   0.0416667
        k(   46) = (   0.1666667   0.2916667   0.0000000), wk =   0.0416667
        k(   47) = (   0.1666667   0.3333333   0.0000000), wk =   0.0416667
        k(   48) = (   0.1666667   0.3750000   0.0000000), wk =   0.0416667
        k(   49) = (   0.1666667   0.4166667   0.0000000), wk =   0.0208333
        k(   50) = (   0.2083333   0.2083333   0.0000000), wk =   0.0208333
        k(   51) = (   0.2083333   0.2500000   0.0000000), wk =   0.0416667
        k(   52) = (   0.2083333   0.2916667   0.0000000), wk =   0.0416667
        k(   53) = (   0.2083333   0.3333333   0.0000000), wk =   0.0416667
        k(   54) = (   0.2083333   0.3750000   0.0000000), wk =   0.0416667
        k(   55) = (   0.2500000   0.2500000   0.0000000), wk =   0.0208333
        k(   56) = (   0.2500000   0.2916667   0.0000000), wk =   0.0416667
        k(   57) = (   0.2500000   0.3333333   0.0000000), wk =   0.0416667
        k(   58) = (   0.2500000   0.3750000   0.0000000), wk =   0.0208333
        k(   59) = (   0.2916667   0.2916667   0.0000000), wk =   0.0208333
        k(   60) = (   0.2916667   0.3333333   0.0000000), wk =   0.0416667
        k(   61) = (   0.3333333   0.3333333   0.0000000), wk =   0.0069444

     Dense  grid:    64893 G-vectors     FFT dimensions: (  30,  30, 192)

     Smooth grid:    22953 G-vectors     FFT dimensions: (  20,  20, 135)

     Dynamical RAM for                 wfc:       0.18 MB

     Dynamical RAM for     wfc (w. buffer):      10.88 MB

     Dynamical RAM for           str. fact:       0.99 MB

     Dynamical RAM for           local pot:       0.00 MB

     Dynamical RAM for          nlocal pot:       0.70 MB

     Dynamical RAM for                qrad:       0.44 MB

     Dynamical RAM for          rho,v,vnew:       6.93 MB

     Dynamical RAM for               rhoin:       2.31 MB

     Dynamical RAM for            rho*nmix:      15.84 MB

     Dynamical RAM for           G-vectors:       3.89 MB

     Dynamical RAM for          h,s,v(r/c):       0.00 MB

     Dynamical RAM for          <psi|beta>:       0.00 MB

     Dynamical RAM for                 psi:       0.35 MB

     Dynamical RAM for                hpsi:       0.35 MB

     Dynamical RAM for                spsi:       0.35 MB

     Dynamical RAM for      wfcinit/wfcrot:       0.35 MB

     Dynamical RAM for           addusdens:      44.56 MB

     Dynamical RAM for          addusforce:      47.04 MB

     Dynamical RAM for         addusstress:      49.51 MB

     Estimated static dynamical RAM per process >      34.71 MB

     Estimated max dynamical RAM per process >     100.06 MB

     Check: negative core charge=   -0.000005

     Initial potential from superposition of free atoms

     starting charge       7.9999, renormalised to       8.0000

     negative rho (up, down):  1.142E-04 0.000E+00
     Starting wfcs are    8 randomized atomic wfcs
     Checking if some PAW data can be deallocated... 

     total cpu time spent up to now is        1.2 secs

     Self-consistent Calculation

     iteration #  1     ecut=    45.00 Ry     beta= 0.40
     Davidson diagonalization with overlap

---- Real-time Memory Report at c_bands before calling an iterative solver
            94 MiB given to the printing process from OS
             0 MiB allocation reported by mallinfo(arena+hblkhd)
          6962 MiB available memory on the node where the printing process lives
------------------
     ethr =  1.00E-02,  avg # of iterations =  2.0

     negative rho (up, down):  1.496E-04 0.000E+00

     total cpu time spent up to now is        1.9 secs

     total energy              =     -36.24326210 Ry
     estimated scf accuracy    <       0.18656814 Ry

     iteration #  2     ecut=    45.00 Ry     beta= 0.40
     Davidson diagonalization with overlap

---- Real-time Memory Report at c_bands before calling an iterative solver
           111 MiB given to the printing process from OS
             0 MiB allocation reported by mallinfo(arena+hblkhd)
          6944 MiB available memory on the node where the printing process lives
------------------
     ethr =  2.33E-03,  avg # of iterations =  1.0

     negative rho (up, down):  1.983E-04 0.000E+00

     total cpu time spent up to now is        2.5 secs

     total energy              =     -36.22184349 Ry
     estimated scf accuracy    <       0.04554583 Ry

     iteration #  3     ecut=    45.00 Ry     beta= 0.40
     Davidson diagonalization with overlap

---- Real-time Memory Report at c_bands before calling an iterative solver
           113 MiB given to the printing process from OS
             0 MiB allocation reported by mallinfo(arena+hblkhd)
          6945 MiB available memory on the node where the printing process lives
------------------
     ethr =  5.69E-04,  avg # of iterations =  2.0

     negative rho (up, down):  2.036E-04 0.000E+00

     total cpu time spent up to now is        3.1 secs

     total energy              =     -36.23155777 Ry
     estimated scf accuracy    <       0.00191485 Ry

     iteration #  4     ecut=    45.00 Ry     beta= 0.40
     Davidson diagonalization with overlap

---- Real-time Memory Report at c_bands before calling an iterative solver
           114 MiB given to the printing process from OS
             0 MiB allocation reported by mallinfo(arena+hblkhd)
          6944 MiB available memory on the node where the printing process lives
------------------
     ethr =  2.39E-05,  avg # of iterations =  2.0

     negative rho (up, down):  2.215E-04 0.000E+00

     total cpu time spent up to now is        3.8 secs

     total energy              =     -36.23183162 Ry
     estimated scf accuracy    <       0.00038827 Ry

     iteration #  5     ecut=    45.00 Ry     beta= 0.40
     Davidson diagonalization with overlap

---- Real-time Memory Report at c_bands before calling an iterative solver
           114 MiB given to the printing process from OS
             0 MiB allocation reported by mallinfo(arena+hblkhd)
          6943 MiB available memory on the node where the printing process lives
------------------
     ethr =  4.85E-06,  avg # of iterations =  2.0

     negative rho (up, down):  2.240E-04 0.000E+00

     total cpu time spent up to now is        4.5 secs

     total energy              =     -36.23188109 Ry
     estimated scf accuracy    <       0.00000962 Ry

     iteration #  6     ecut=    45.00 Ry     beta= 0.40
     Davidson diagonalization with overlap

---- Real-time Memory Report at c_bands before calling an iterative solver
           115 MiB given to the printing process from OS
             0 MiB allocation reported by mallinfo(arena+hblkhd)
          6943 MiB available memory on the node where the printing process lives
------------------
     ethr =  1.20E-07,  avg # of iterations =  3.5

     negative rho (up, down):  2.257E-04 0.000E+00

     total cpu time spent up to now is        5.2 secs

     total energy              =     -36.23188498 Ry
     estimated scf accuracy    <       0.00000134 Ry

     iteration #  7     ecut=    45.00 Ry     beta= 0.40
     Davidson diagonalization with overlap

---- Real-time Memory Report at c_bands before calling an iterative solver
           116 MiB given to the printing process from OS
             0 MiB allocation reported by mallinfo(arena+hblkhd)
          6941 MiB available memory on the node where the printing process lives
------------------
     ethr =  1.67E-08,  avg # of iterations =  2.4

     negative rho (up, down):  2.270E-04 0.000E+00

     total cpu time spent up to now is        5.8 secs

     total energy              =     -36.23188542 Ry
     estimated scf accuracy    <       0.00000006 Ry

     iteration #  8     ecut=    45.00 Ry     beta= 0.40
     Davidson diagonalization with overlap

---- Real-time Memory Report at c_bands before calling an iterative solver
           116 MiB given to the printing process from OS
             0 MiB allocation reported by mallinfo(arena+hblkhd)
          6941 MiB available memory on the node where the printing process lives
------------------
     ethr =  7.65E-10,  avg # of iterations =  2.8

     negative rho (up, down):  2.277E-04 0.000E+00

     total cpu time spent up to now is        6.4 secs

     total energy              =     -36.23188542 Ry
     estimated scf accuracy    <       0.00000003 Ry

     iteration #  9     ecut=    45.00 Ry     beta= 0.40
     Davidson diagonalization with overlap

---- Real-time Memory Report at c_bands before calling an iterative solver
           117 MiB given to the printing process from OS
             0 MiB allocation reported by mallinfo(arena+hblkhd)
          6941 MiB available memory on the node where the printing process lives
------------------
     ethr =  3.52E-10,  avg # of iterations =  2.0

     negative rho (up, down):  2.282E-04 0.000E+00

     total cpu time spent up to now is        7.0 secs

     total energy              =     -36.23188543 Ry
     estimated scf accuracy    <          1.2E-09 Ry

     iteration # 10     ecut=    45.00 Ry     beta= 0.40
     Davidson diagonalization with overlap

---- Real-time Memory Report at c_bands before calling an iterative solver
           118 MiB given to the printing process from OS
             0 MiB allocation reported by mallinfo(arena+hblkhd)
          6938 MiB available memory on the node where the printing process lives
------------------
     ethr =  1.48E-11,  avg # of iterations =  2.9

     negative rho (up, down):  2.289E-04 0.000E+00

     total cpu time spent up to now is        7.7 secs

     End of self-consistent calculation

          k = 0.0000 0.0000 0.0000 (  2825 PWs)   bands (ev):

   -21.4981  -9.6443  -4.9198  -4.9198

     occupation numbers 
     1.0000   1.0000   1.0000   1.0000

          k = 0.0000 0.0481 0.0000 (  2819 PWs)   bands (ev):

   -21.4567  -9.5946  -5.0897  -5.0110

     occupation numbers 
     1.0000   1.0000   1.0000   1.0000

          k = 0.0000 0.0962 0.0000 (  2821 PWs)   bands (ev):

   -21.3328  -9.4459  -5.5737  -5.2655

     occupation numbers 
     1.0000   1.0000   1.0000   1.0000

          k = 0.0000 0.1443 0.0000 (  2843 PWs)   bands (ev):

   -21.1266  -9.1991  -6.3087  -5.6371

     occupation numbers 
     1.0000   1.0000   1.0000   1.0000

          k = 0.0000 0.1925 0.0000 (  2857 PWs)   bands (ev):

   -20.8388  -8.8559  -7.2216  -6.0731

     occupation numbers 
     1.0000   1.0000   1.0000   1.0000

          k = 0.0000 0.2406 0.0000 (  2859 PWs)   bands (ev):

   -20.4701  -8.4192  -8.2474  -6.5280

     occupation numbers 
     1.0000   1.0000   1.0000   1.0000

          k = 0.0000 0.2887 0.0000 (  2855 PWs)   bands (ev):

   -20.0217  -9.3354  -7.8933  -6.9676

     occupation numbers 
     1.0000   1.0000   1.0000   1.0000

          k = 0.0000 0.3368 0.0000 (  2848 PWs)   bands (ev):

   -19.4953 -10.4479  -7.3679  -7.2855

     occupation numbers 
     1.0000   1.0000   1.0000   1.0000

          k = 0.0000 0.3849 0.0000 (  2862 PWs)   bands (ev):

   -18.8932 -11.5569  -7.7121  -6.6080

     occupation numbers 
     1.0000   1.0000   1.0000   1.0000

          k = 0.0000 0.4330 0.0000 (  2876 PWs)   bands (ev):

   -18.2192 -12.6406  -7.9893  -5.8840

     occupation numbers 
     1.0000   1.0000   1.0000   1.0000

          k = 0.0000 0.4811 0.0000 (  2878 PWs)   bands (ev):

   -17.4813 -13.6789  -8.1918  -5.1627

     occupation numbers 
     1.0000   1.0000   1.0000   1.0000

          k = 0.0000 0.5292 0.0000 (  2872 PWs)   bands (ev):

   -16.7072 -14.6360  -8.3150  -4.5582

     occupation numbers 
     1.0000   1.0000   1.0000   1.0000

          k = 0.0000-0.5774 0.0000 (  2884 PWs)   bands (ev):

   -16.1695 -15.2353  -8.3564  -4.3001

     occupation numbers 
     1.0000   1.0000   1.0000   1.0000

          k = 0.0417 0.0722 0.0000 (  2817 PWs)   bands (ev):

   -21.3741  -9.4954  -5.4070  -5.1934

     occupation numbers 
     1.0000   1.0000   1.0000   1.0000

          k = 0.0417 0.1203 0.0000 (  2834 PWs)   bands (ev):

   -21.2090  -9.2976  -5.9950  -5.5284

     occupation numbers 
     1.0000   1.0000   1.0000   1.0000

          k = 0.0417 0.1684 0.0000 (  2847 PWs)   bands (ev):

   -20.9621  -9.0026  -6.7974  -5.9543

     occupation numbers 
     1.0000   1.0000   1.0000   1.0000

          k = 0.0417 0.2165 0.0000 (  2863 PWs)   bands (ev):

   -20.6338  -8.6125  -7.7499  -6.4172

     occupation numbers 
     1.0000   1.0000   1.0000   1.0000

          k = 0.0417 0.2646 0.0000 (  2859 PWs)   bands (ev):

   -20.2253  -8.7949  -8.1309  -6.8767

     occupation numbers 
     1.0000   1.0000   1.0000   1.0000

          k = 0.0417 0.3127 0.0000 (  2853 PWs)   bands (ev):

   -19.7379  -9.8872  -7.5633  -7.3048

     occupation numbers 
     1.0000   1.0000   1.0000   1.0000

          k = 0.0417 0.3608 0.0000 (  2854 PWs)   bands (ev):

   -19.1736 -10.9927  -7.6822  -6.9191

     occupation numbers 
     1.0000   1.0000   1.0000   1.0000

          k = 0.0417 0.4090 0.0000 (  2866 PWs)   bands (ev):

   -18.5353 -12.0858  -7.9962  -6.2146

     occupation numbers 
     1.0000   1.0000   1.0000   1.0000

          k = 0.0417 0.4571 0.0000 (  2880 PWs)   bands (ev):

   -17.8285 -13.1455  -8.2380  -5.4830

     occupation numbers 
     1.0000   1.0000   1.0000   1.0000

          k = 0.0417 0.5052 0.0000 (  2879 PWs)   bands (ev):

   -17.0666 -14.1479  -8.4019  -4.7983

     occupation numbers 
     1.0000   1.0000   1.0000   1.0000

          k = 0.0417 0.5533 0.0000 (  2883 PWs)   bands (ev):

   -16.3252 -15.0111  -8.4847  -4.3310

     occupation numbers 
     1.0000   1.0000   1.0000   1.0000

          k = 0.0833 0.1443 0.0000 (  2847 PWs)   bands (ev):

   -21.0032  -9.0516  -6.6107  -5.9577

     occupation numbers 
     1.0000   1.0000   1.0000   1.0000

          k = 0.0833 0.1925 0.0000 (  2864 PWs)   bands (ev):

   -20.7158  -8.7095  -7.4002  -6.4639

     occupation numbers 
     1.0000   1.0000   1.0000   1.0000

          k = 0.0833 0.2406 0.0000 (  2866 PWs)   bands (ev):

   -20.3477  -8.3305  -8.2741  -6.9735

     occupation numbers 
     1.0000   1.0000   1.0000   1.0000

          k = 0.0833 0.2887 0.0000 (  2858 PWs)   bands (ev):

   -19.9001  -9.3527  -7.7499  -7.4491

     occupation numbers 
     1.0000   1.0000   1.0000   1.0000

          k = 0.0833 0.3368 0.0000 (  2868 PWs)   bands (ev):

   -19.3748 -10.4211  -7.8715  -7.1438

     occupation numbers 
     1.0000   1.0000   1.0000   1.0000

          k = 0.0833 0.3849 0.0000 (  2881 PWs)   bands (ev):

   -18.7742 -11.5005  -8.2290  -6.4678

     occupation numbers 
     1.0000   1.0000   1.0000   1.0000

          k = 0.0833 0.4330 0.0000 (  2876 PWs)   bands (ev):

   -18.1023 -12.5641  -8.5138  -5.7444

     occupation numbers 
     1.0000   1.0000   1.0000   1.0000

          k = 0.0833 0.4811 0.0000 (  2876 PWs)   bands (ev):

   -17.3671 -13.5885  -8.7206  -5.0213

     occupation numbers 
     1.0000   1.0000   1.0000   1.0000

          k = 0.0833 0.5292 0.0000 (  2897 PWs)   bands (ev):

   -16.5971 -14.5356  -8.8459  -4.4113

     occupation numbers 
     1.0000   1.0000   1.0000   1.0000

          k = 0.0833 0.5774 0.0000 (  2897 PWs)   bands (ev):

   -16.0642 -15.1282  -8.8879  -4.1486

     occupation numbers 
     1.0000   1.0000   1.0000   1.0000

          k = 0.1250 0.2165 0.0000 (  2869 PWs)   bands (ev):

   -20.3886  -8.3220  -8.1143  -7.0704

     occupation numbers 
     1.0000   1.0000   1.0000   1.0000

          k = 0.1250 0.2646 0.0000 (  2861 PWs)   bands (ev):

   -19.9814  -8.9561  -7.8436  -7.6622

     occupation numbers 
     1.0000   1.0000   1.0000   1.0000

          k = 0.1250 0.3127 0.0000 (  2858 PWs)   bands (ev):

   -19.4960  -9.9086  -8.1783  -7.2796

     occupation numbers 
     1.0000   1.0000   1.0000   1.0000

          k = 0.1250 0.3608 0.0000 (  2872 PWs)   bands (ev):

   -18.9343 -10.9250  -8.6070  -6.6390

     occupation numbers 
     1.0000   1.0000   1.0000   1.0000

          k = 0.1250 0.4090 0.0000 (  2882 PWs)   bands (ev):

   -18.2996 -11.9610  -8.9497  -5.9371

     occupation numbers 
     1.0000   1.0000   1.0000   1.0000

          k = 0.1250 0.4571 0.0000 (  2885 PWs)   bands (ev):

   -17.5976 -12.9831  -9.2074  -5.2049

     occupation numbers 
     1.0000   1.0000   1.0000   1.0000

          k = 0.1250 0.5052 0.0000 (  2881 PWs)   bands (ev):

   -16.8424 -13.9599  -9.3797  -4.5128

     occupation numbers 
     1.0000   1.0000   1.0000   1.0000

          k = 0.1250 0.5533 0.0000 (  2889 PWs)   bands (ev):

   -16.1107 -14.8048  -9.4661  -4.0316

     occupation numbers 
     1.0000   1.0000   1.0000   1.0000

          k = 0.1667 0.2887 0.0000 (  2859 PWs)   bands (ev):

   -19.5364  -9.6584  -8.3645  -7.3251

     occupation numbers 
     1.0000   1.0000   1.0000   1.0000

          k = 0.1667 0.3368 0.0000 (  2872 PWs)   bands (ev):

   -19.0146 -10.4784  -8.9676  -6.7252

     occupation numbers 
     1.0000   1.0000   1.0000   1.0000

          k = 0.1667 0.3849 0.0000 (  2882 PWs)   bands (ev):

   -18.4186 -11.4014  -9.4319  -6.0550

     occupation numbers 
     1.0000   1.0000   1.0000   1.0000

          k = 0.1667 0.4330 0.0000 (  2888 PWs)   bands (ev):

   -17.7530 -12.3716  -9.7729  -5.3345

     occupation numbers 
     1.0000   1.0000   1.0000   1.0000

          k = 0.1667 0.4811 0.0000 (  2890 PWs)   bands (ev):

   -17.0266 -13.3384 -10.0085  -4.6063

     occupation numbers 
     1.0000   1.0000   1.0000   1.0000

          k = 0.1667 0.5292 0.0000 (  2893 PWs)   bands (ev):

   -16.2687 -14.2484 -10.1475  -3.9766

     occupation numbers 
     1.0000   1.0000   1.0000   1.0000

          k = 0.1667 0.5774 0.0000 (  2901 PWs)   bands (ev):

   -15.7483 -14.8207 -10.1935  -3.6958

     occupation numbers 
     1.0000   1.0000   1.0000   1.0000

          k = 0.2083 0.3608 0.0000 (  2875 PWs)   bands (ev):

   -18.4584 -11.1157  -9.6958  -6.0947

     occupation numbers 
     1.0000   1.0000   1.0000   1.0000

          k = 0.2083 0.4090 0.0000 (  2888 PWs)   bands (ev):

   -17.8312 -11.8781 -10.2537  -5.4013

     occupation numbers 
     1.0000   1.0000   1.0000   1.0000

          k = 0.2083 0.4571 0.0000 (  2894 PWs)   bands (ev):

   -17.1395 -12.7420 -10.6253  -4.6705

     occupation numbers 
     1.0000   1.0000   1.0000   1.0000

          k = 0.2083 0.5052 0.0000 (  2903 PWs)   bands (ev):

   -16.3986 -13.6308 -10.8506  -3.9612

     occupation numbers 
     1.0000   1.0000   1.0000   1.0000

          k = 0.2083 0.5533 0.0000 (  2911 PWs)   bands (ev):

   -15.6848 -14.4270 -10.9578  -3.4401

     occupation numbers 
     1.0000   1.0000   1.0000   1.0000

          k = 0.2500 0.4330 0.0000 (  2897 PWs)   bands (ev):

   -17.1775 -12.4248 -10.9521  -4.6932

     occupation numbers 
     1.0000   1.0000   1.0000   1.0000

          k = 0.2500 0.4811 0.0000 (  2911 PWs)   bands (ev):

   -16.4676 -13.1086 -11.4194  -3.9608

     occupation numbers 
     1.0000   1.0000   1.0000   1.0000

          k = 0.2500 0.5292 0.0000 (  2921 PWs)   bands (ev):

   -15.7314 -13.8735 -11.6626  -3.2855

     occupation numbers 
     1.0000   1.0000   1.0000   1.0000

          k = 0.2500 0.5774 0.0000 (  2927 PWs)   bands (ev):

   -15.2231 -14.3994 -11.7367  -2.9471

     occupation numbers 
     1.0000   1.0000   1.0000   1.0000

          k = 0.2917 0.5052 0.0000 (  2929 PWs)   bands (ev):

   -15.7547 -13.5551 -12.0258  -3.2349

     occupation numbers 
     1.0000   1.0000   1.0000   1.0000

          k = 0.2917 0.5533 0.0000 (  2931 PWs)   bands (ev):

   -15.0646 -14.1172 -12.3277  -2.5968

     occupation numbers 
     1.0000   1.0000   1.0000   1.0000

          k = 0.3333 0.5774 0.0000 (  2925 PWs)   bands (ev):

   -14.4905 -14.4905 -12.6106  -1.9125

     occupation numbers 
     1.0000   1.0000   1.0000   1.0000

     highest occupied level (ev):    -1.9125

!    total energy              =     -36.23188543 Ry
     total all-electron energy =      -151.789941 Ry
     estimated scf accuracy    <          6.8E-12 Ry

     The total energy is the sum of the following terms:
     one-electron contribution =    -171.51876827 Ry
     hartree contribution      =      87.31140944 Ry
     xc contribution           =      -9.17527736 Ry
     ewald contribution        =      68.93173923 Ry
     one-center paw contrib.   =     -11.78098846 Ry
      -> PAW hartree energy AE =      19.19907945 Ry
      -> PAW hartree energy PS =     -19.18172108 Ry
      -> PAW xc energy AE      =     -20.77890918 Ry
      -> PAW xc energy PS      =       8.98056235 Ry
      -> total E_H with PAW    =      87.32876780 Ry
      -> total E_XC with PAW   =     -20.97362419 Ry

     convergence has been achieved in  10 iterations

     negative rho (up, down):  2.289E-04 0.000E+00

     Forces acting on atoms (cartesian axes, Ry/au):

     atom    1 type  1   force =     0.00000000    0.00000000    0.00000000
     atom    2 type  1   force =     0.00000000   -0.00000000    0.00000000
     The non-local contrib.  to forces
     atom    1 type  1   force =     0.00000000   -0.00000000   -0.00000000
     atom    2 type  1   force =     0.00000000   -0.00000000   -0.00000000
     The ionic contribution  to forces
     atom    1 type  1   force =     0.00000017   -0.00000010   -0.00000000
     atom    2 type  1   force =    -0.00000017    0.00000010   -0.00000000
     The local contribution  to forces
     atom    1 type  1   force =     0.00000006   -0.00000003    0.00000000
     atom    2 type  1   force =    -0.00000006    0.00000003    0.00000000
     The core correction contribution to forces
     atom    1 type  1   force =    -0.00000001    0.00000000    0.00000000
     atom    2 type  1   force =     0.00000001   -0.00000000    0.00000000
     The Hubbard contrib.    to forces
     atom    1 type  1   force =     0.00000000    0.00000000    0.00000000
     atom    2 type  1   force =     0.00000000    0.00000000    0.00000000
     The SCF correction term to forces
     atom    1 type  1   force =    -0.00000000    0.00000000   -0.00000000
     atom    2 type  1   force =     0.00000000   -0.00000000   -0.00000000

     Total force =     0.000000     Total SCF correction =     0.000000


     Computing stress (Cartesian axis) and pressure


     negative rho (up, down):  2.289E-04 0.000E+00
          total   stress  (Ry/bohr**3)                   (kbar)     P=        2.15
   0.00002306  -0.00000000  -0.00000000            3.39       -0.00       -0.00
  -0.00000000   0.00002306   0.00000000           -0.00        3.39        0.00
  -0.00000000   0.00000000  -0.00000221           -0.00        0.00       -0.33

     kinetic stress (kbar)   2447.70      0.00      0.00
                                0.00   2447.70      0.00
                                0.00      0.00   2769.01

     local   stress (kbar) -48170.67     -0.00     -0.00
                               -0.00 -48170.67     -0.00
                               -0.00     -0.00  47939.31

     nonloc. stress (kbar)    659.85      0.00      0.00
                                0.00    659.85      0.00
                                0.00      0.00    600.80

     hartree stress (kbar)  22556.67      0.00     -0.00
                                0.00  22556.67      0.00
                               -0.00      0.00 -22344.84

     exc-cor stress (kbar)    -55.06      0.00      0.00
                                0.00    -55.06      0.00
                                0.00      0.00    -66.86

     corecor stress (kbar)   -584.60     -0.00     -0.00
                               -0.00   -584.60      0.00
                               -0.00      0.00   -574.33

     ewald   stress (kbar)  23149.50      0.00     -0.00
                                0.00  23149.50     -0.00
                               -0.00     -0.00 -28323.42

     hubbard stress (kbar)      0.00      0.00      0.00
                                0.00      0.00      0.00
                                0.00      0.00      0.00

     DFT-D   stress (kbar)      0.00      0.00      0.00
                                0.00      0.00      0.00
                                0.00      0.00      0.00

     XDM     stress (kbar)      0.00      0.00      0.00
                                0.00      0.00      0.00
                                0.00      0.00      0.00

     dft-nl  stress (kbar)      0.00      0.00      0.00
                                0.00      0.00      0.00
                                0.00      0.00      0.00

     TS-vdW  stress (kbar)      0.00      0.00      0.00
                                0.00      0.00      0.00
                                0.00      0.00      0.00

     MDB     stress (kbar)      0.00      0.00      0.00
                                0.00      0.00      0.00
                                0.00      0.00      0.00

     3D-RISM stress (kbar)      0.00      0.00      0.00
                                0.00      0.00      0.00
                                0.00      0.00      0.00


     Writing all to output data dir ./tmp/graphene.save/ :
     XML data file, charge density, pseudopotentials, collected wavefunctions

     init_run     :      1.16s CPU      1.18s WALL (       1 calls)
     electrons    :      6.37s CPU      6.44s WALL (       1 calls)
     forces       :      0.14s CPU      0.15s WALL (       1 calls)
     stress       :      0.54s CPU      0.54s WALL (       1 calls)

     Called by init_run:
     wfcinit      :      0.41s CPU      0.41s WALL (       1 calls)
     wfcinit:atom :      0.01s CPU      0.01s WALL (      61 calls)
     wfcinit:wfcr :      0.35s CPU      0.35s WALL (      61 calls)
     potinit      :      0.23s CPU      0.25s WALL (       1 calls)
     hinit0       :      0.44s CPU      0.44s WALL (       1 calls)

     Called by electrons:
     c_bands      :      4.50s CPU      4.39s WALL (      10 calls)
     sum_band     :      0.85s CPU      0.92s WALL (      10 calls)
     v_of_rho     :      0.38s CPU      0.43s WALL (      11 calls)
     v_h          :      0.02s CPU      0.02s WALL (      11 calls)
     v_xc         :      0.43s CPU      0.48s WALL (      13 calls)
     newd         :      0.27s CPU      0.35s WALL (      11 calls)
     PAW_pot      :      0.39s CPU      0.38s WALL (      11 calls)
     mix_rho      :      0.04s CPU      0.04s WALL (      10 calls)

     Called by c_bands:
     init_us_2    :      0.28s CPU      0.28s WALL (    1403 calls)
     cegterg      :      4.16s CPU      4.05s WALL (     610 calls)

     Called by sum_band:
     sum_band:wei :      0.00s CPU      0.00s WALL (      10 calls)
     sum_band:loo :      0.56s CPU      0.54s WALL (      10 calls)
     sum_band:buf :      0.01s CPU      0.01s WALL (     610 calls)
     sum_band:ini :      0.12s CPU      0.12s WALL (     610 calls)
     sum_band:cal :      0.10s CPU      0.10s WALL (     610 calls)
     sum_band:bec :      0.00s CPU      0.00s WALL (     610 calls)
     addusdens    :      0.25s CPU      0.34s WALL (      10 calls)
                                        0.00s GPU  (      10 calls)
     addusd:skk   :      0.00s CPU      0.00s WALL (      10 calls)
                                        0.00s GPU  (      10 calls)

     Called by *egterg:
     cdiaghg      :      0.03s CPU      0.03s WALL (    1989 calls)
     cegterg:over :      0.19s CPU      0.19s WALL (    1379 calls)
     cegterg:upda :      0.11s CPU      0.11s WALL (    1379 calls)
     cegterg:last :      0.23s CPU      0.22s WALL (    1245 calls)
     h_psi        :      3.45s CPU      3.37s WALL (    2050 calls)
     s_psi        :      0.33s CPU      0.32s WALL (    2050 calls)
     g_psi        :      0.03s CPU      0.03s WALL (    1379 calls)

     Called by h_psi:
     h_psi:calbec :      0.33s CPU      0.32s WALL (    2050 calls)
     vloc_psi     :      2.78s CPU      2.72s WALL (    2050 calls)
                                        0.00s GPU  (    2050 calls)
     add_vuspsi   :      0.33s CPU      0.32s WALL (    2050 calls)

     General routines
     calbec       :      0.60s CPU      0.58s WALL (    3697 calls)
     fft          :      0.52s CPU      0.51s WALL (     166 calls)
     ffts         :      0.16s CPU      0.16s WALL (      21 calls)
     fftw         :      2.53s CPU      2.47s WALL (   17274 calls)
     interpolate  :      0.17s CPU      0.17s WALL (      11 calls)

     Parallel routines

     PAW routines
     PAW_pot      :      0.39s CPU      0.38s WALL (      11 calls)
     PAW_symme    :      0.00s CPU      0.00s WALL (      21 calls)

     PWSCF        :      8.28s CPU      8.42s WALL


   This run was terminated on:  18: 1: 1  18Sep2026            

=------------------------------------------------------------------------------=
   JOB DONE.
=------------------------------------------------------------------------------=
